LAMMPS (5 Jun 2019)
  using 1 OpenMP thread(s) per MPI task
package omp 1
using multi-threaded neighbor list subroutines

atom_style full
units real

# Define parameters
# T and srate are passed by command line
variable DT equal 0.5 # time step [fs]
#variable	srate equal 2e-7 # shear rate [1/fs]
variable fname string ${T}K-srate=${srate}.txt
variable fname string 298K-srate=${srate}.txt
variable fname string 298K-srate=10e-7.txt

# read restart file from previous equilibrium run
read_restart    pec6_125.equi${T}K
read_restart    pec6_125.equi298K
WARNING: Restart file used different # of processors (src/read_restart.cpp:740)
  restoring atom style full from restart
  orthogonal box = (23.9525 23.9525 23.9525) to (72.0475 72.0475 72.0475)
  3 by 3 by 4 MPI processor grid
  restoring pair style lj/cut/coul/long/omp from restart
  restoring bond style harmonic/omp from restart
  restoring angle style harmonic/omp from restart
  restoring dihedral style opls/omp from restart
  restoring improper style harmonic/omp from restart
  11125 atoms
  11000 bonds
  20750 angles
  28000 dihedrals
  500 impropers
  4 = max # of 1-2 neighbors
  12 = max # of 1-3 neighbors
  16 = max # of 1-4 neighbors
  20 = max # of special neighbors
  special bonds CPU = 0.0030475 secs
  read_restart CPU = 0.323153 secs
neigh_modify	delay 0 every 1


# initialization
bond_style harmonic
angle_style harmonic
dihedral_style opls
improper_style harmonic
pair_style lj/cut/coul/long 12.0 12.0
pair_modify tail yes mix geometric
special_bonds lj/coul 0.0 0.0 0.5

# force field parameters, ff is passed by command line
include    pec6.${ff}.settings
include    pec6.lopls2015.settings
  pair_coeff 1 1 0.066 3.5
  pair_coeff 2 2 0.015 2.42
  pair_coeff 3 3 0.066 3.5
  pair_coeff 4 4 0.066 3.5
  pair_coeff 5 5 0.066 3.5
  pair_coeff 6 6 0.03 2.5
  pair_coeff 7 7 0.026290630975 2.5
  pair_coeff 8 8 0.105 3.1875
  pair_coeff 9 9 0.168 3.108
  pair_coeff 10 10 0.17 2.55
  bond_coeff 1 570.0 1.229
  bond_coeff 2 317.0 1.522
  bond_coeff 3 214.0 1.327
  bond_coeff 4 268.0 1.529
  bond_coeff 5 320.0 1.41
  bond_coeff 6 340.0 1.09
  angle_coeff 1 80.0 120.4
  angle_coeff 2 81.0 111.4
  angle_coeff 3 83.0 123.4
  angle_coeff 4 58.35 112.7
  angle_coeff 5 63.0 111.1
  angle_coeff 6 50.0 109.5
  angle_coeff 7 33.0 107.8
  angle_coeff 8 35.0 109.5
  angle_coeff 9 35.0 109.5
  angle_coeff 10 37.5 110.7
  angle_coeff 11 83.0 116.9
dihedral_coeff 1 -0.00000 -0.00000 -0.00000 0.00000
dihedral_coeff 2 -0.00000 0.00000 0.30000 0.00000
dihedral_coeff 3 -0.00000 0.00000 0.30000 0.00000
dihedral_coeff 4 0.00000 0.00000 0.19800 0.00000
dihedral_coeff 5 0.64470 -0.21434 0.17822 0.00000
dihedral_coeff 6 3.11924 5.73771 -0.00000 0.00000
dihedral_coeff 7 -0.00000 5.73772 -0.00000 0.00000
dihedral_coeff 8 -0.00742 0.00218 0.11181 0.00000
dihedral_coeff 9 -1.73540 -1.24844 0.62389 0.00000
dihedral_coeff 10 0.88498 -0.62690 -0.49334 0.00000
dihedral_coeff 11 -0.27601 1.23685 -0.67075 0.00000
dihedral_coeff 12 -0.00213 0.01735 -0.29521 0.00000
dihedral_coeff 13 -2.30739 -0.62733 0.62195 0.00000
dihedral_coeff 14 2.25871 -1.02408 1.00710 0.00000
  improper_coeff 1 10.5 180.0
  set type 1 charge 0.0
  125 settings made for charge
  set type 2 charge 0.03
  1000 settings made for charge
  set type 3 charge 0.19
  500 settings made for charge
  set type 4 charge -0.222
  500 settings made for charge
  set type 5 charge -0.148
  2000 settings made for charge
  set type 6 charge 0.074
  1500 settings made for charge
  set type 7 charge 0.074
  4000 settings made for charge
  set type 8 charge 0.75
  500 settings made for charge
  set type 9 charge -0.55
  500 settings made for charge
  set type 10 charge -0.45
  500 settings made for charge


change_box all triclinic
  triclinic box = (23.9525 23.9525 23.9525) to (72.0475 72.0475 72.0475) with tilt (0 0 0)
kspace_style pppm 0.0001 # must redefine pppm after changing to triclinic


timestep ${DT}
timestep 0.5
reset_timestep	0
#run_style respa 2 4


# CORE part of NEMD simulation; using SLLOD algorithm.

fix		nemd1 all nvt/sllod temp $T $T $(100*dt)
fix		nemd1 all nvt/sllod temp 298 $T $(100*dt)
fix		nemd1 all nvt/sllod temp 298 298 $(100*dt)
fix		nemd1 all nvt/sllod temp 298 298 50
fix		nemd2 all deform 1 xy erate ${srate} remap v
fix		nemd2 all deform 1 xy erate 10e-7 remap v

compute		usual all temp
compute		tilt  all temp/deform
compute     tiltp all pressure tilt

#compute         layers all chunk/atom bin/1d y center 0.05 units reduced
#fix		4 all ave/chunk 100 250 25000 layers vx file velocity.txt

# data gathering
variable        stress equal (-1)*c_tiltp[4]  # -pxy
variable        h1 equal c_tiltp[1]  # pxx
variable        h2 equal c_tiltp[2]  # pyy
variable        h3 equal c_tiltp[3]  # pzz
variable        h4 equal c_tiltp[4]  # pxy
variable        h5 equal c_tiltp[5]  # pxz
variable        h6 equal c_tiltp[6]  # pyz
variable	visc equal 101325e-12*v_stress/(v_srate) # shear viscosity [mPa s]; first term is unit converter

fix		viscave all ave/time 10 1000 10000 v_visc ave running start 10000 file ${fname}
fix		viscave all ave/time 10 1000 10000 v_visc ave running start 10000 file 298K-srate=10e-7.txt

thermo 10000
thermo_style	custom step temp press pxy v_visc f_viscave
thermo_modify	temp tilt
thermo_modify   press tiltp

# only need to run for 5400 steps to make a good 100-frame movie
# set 54K steps above in equil and 5400 here simply to make good movie
# 54K and 5400 are multiples of box-swap periodicity = 2700 steps

#dump myDump all atom 10000 pec6.lammpstrj

#dump	        1 all custom 50 dump.nemd.2d id type x y z vx

#dump		2 all image 50 image.*.jpg vx type zoom 1.2 adiam 1.2
#dump_modify	2 pad 5 amap 0.0 ${srate} ca 0.0 2 min blue max red

restart 1000000 ${T}K.restart.A ${T}K.restart.B
restart 1000000 298K.restart.A ${T}K.restart.B
restart 1000000 298K.restart.A 298K.restart.B
run		50000000
PPPM initialization ...
  using 12-bit tables for long-range coulomb (src/kspace.cpp:319)
  G vector (1/distance) = 0.196002
  grid = 15 15 15
  stencil order = 5
  estimated absolute RMS force accuracy = 0.0198665
  estimated relative force accuracy = 5.98274e-05
  using double precision FFTs
  3d grid and FFT values/proc = 1000 135
No /omp style for force computation currently active
Neighbor list info ...
  update every 1 steps, delay 0 steps, check yes
  max neighbors/atom: 2000, page size: 100000
  master list distance cutoff = 14
  ghost atom cutoff = 14
  binsize = 7, bins = 7 7 7
  1 neighbor lists, perpetual/occasional/extra = 1 0 0
  (1) pair lj/cut/coul/long, perpetual
      attributes: half, newton on, omp
      pair build: half/bin/newton/tri/omp
      stencil: half/bin/3d/newton/tri
      bin: standard
Per MPI rank memory allocation (min/avg/max) = 16.19 | 16.21 | 16.58 Mbytes
Step Temp Press Pxy v_visc f_viscave 
       0    298.38095   -850.63985   -129.46948    13.118495            0 
   10000    296.82492    476.22625     86.92435   -8.8076097    4.0318172 
   20000    300.34206    -620.5592   -480.38148    48.674653    4.3200702 
   30000    298.51066   -492.84222    365.09657    -36.99341    6.7602829 
   40000    294.57191   -762.84246   -561.34058    56.877834    6.8310877 
   50000    302.23009    1186.6207    456.48377   -46.253218    6.4019529 
   60000    296.36721    834.71874   -22.346721    2.2642816     7.187106 
   70000    295.04145     94.08682   -234.21525     23.73186    8.2025321 
   80000    300.64286    284.71699    250.59535   -25.391574    9.1514775 
   90000    298.12572    417.42626   -882.98493    89.468448    10.204373 
  100000    296.26109   -127.61809   -672.19246    68.109901    10.271328 
  110000    298.28718    165.39122   -268.60488     27.21639    10.365713 
  120000    295.48093   -154.81965   -272.61556    27.622772    10.536255 
  130000    299.03215    1227.3167    549.79824   -55.708307    10.734909 
  140000    297.24747    -235.9357   -1720.1426    174.29345    11.184195 
  150000    297.53398   -1105.9321    587.12637    -59.49058    11.310879 
  160000    305.07903    230.45284    -184.8313    18.728031    11.307206 
  170000     297.9145    495.05203    269.55639   -27.312801     11.84222 
  180000    299.88394    218.52135    132.83585   -13.459593    12.161485 
  190000    299.39473   -524.06577   -183.43009    18.586054    12.520142 
  200000    297.91667   -1.6820509    806.70088   -81.738967    12.892388 
  210000    294.00571   -598.41801    521.98618    -52.89025     12.79655 
  220000    299.66885    1244.9657   -657.08742    66.579382    12.837117 
  230000    296.97462    148.25506   -554.32537    56.167018    12.720526 
  240000      301.149     498.3409   -517.58964     52.44477    12.925751 
  250000    296.98935   -182.69943     466.7386   -47.292289    13.165872 
  260000    296.76671    1258.0965   -514.48522    52.130215    13.581213 
  270000    299.08964    164.46038   -1090.8798    110.53339    13.711158 
  280000    298.24743   -748.35512   -146.75077    14.869522    13.667351 
  290000    297.78782    183.02909    459.64831   -46.573865    13.876511 
  300000    299.72839   -801.98152    -819.4355    83.029302    14.111645 
  310000    294.35358   -716.20058   -501.84819    50.849767     14.35028 
  320000    296.46092    -598.0797    58.386678   -5.9160301    14.724808 
  330000    300.81433   -409.46733   -634.55751    64.296539    14.897053 
  340000    299.62667   -1082.0495    -231.9124    23.498524    14.799434 
  350000     296.5574    258.96981    405.49062   -41.086337    14.786503 
  360000    296.35967    785.05837   -192.69521    19.524842      15.0228 
  370000    300.12574    545.11621   -536.24655    54.335182    15.338257 
  380000    296.59158   -517.88577    419.19341   -42.474773    15.591421 
  390000    298.64889   -1577.4353   -1684.5825    170.69032    15.915491 
  400000    302.79963    465.60552   -354.44968    35.914614     16.32326 
  410000    294.65828    -529.9988   -496.95505    50.353971      16.5029 
  420000      295.383      -215.01    113.85202   -11.536056    16.630155 
  430000    302.01243   -143.23369   -235.45861    23.857844    16.795033 
  440000    299.84584    119.01907    60.221297   -6.1019229    16.891617 
  450000    298.51139    1015.0492    -201.9794    20.465562    17.023356 
  460000      298.845   -320.87989   -1044.0763    105.79103    17.182907 
  470000    296.30086   -604.26817   -641.18529      64.9681    17.460635 
  480000    298.63707     -831.986    539.67381   -54.682448    17.627506 
  490000    297.63782   -614.65887    13.954534   -1.4139432    17.650791 
  500000    295.60021   -281.53624     382.5238   -38.759224     17.69161 
  510000    297.61462   -1077.1374    311.31346   -31.543836    17.714595 
  520000    297.47955    25.075202   -96.098031     9.737133    17.760146 
  530000    296.82014   -22.081511     436.5541   -44.233844    17.928129 
  540000    301.03565     231.1846    946.07089   -95.860633    18.082633 
  550000    300.03264   -154.25512   -36.502079    3.6985731    18.191892 
  560000    298.71539    736.57658    89.687031   -9.0875384    18.256211 
  570000    303.10173   -66.048892   -669.62425    67.849677    18.293774 
  580000    298.90347   -104.82553   -756.33232    76.635372    18.460564 
  590000    296.59072   -272.52704   -787.98011    79.842085    18.599551 
  600000    296.95384    382.76953    294.01074   -29.790639    18.705634 
  610000    298.61206    172.90124   -973.01532    98.590777    18.887793 
  620000    297.42173   -711.57527   -191.30223    19.383698      19.0382 
  630000    297.85608   -37.688499   -392.05736    39.725212    19.121544 
  640000    290.51404   -348.82419    10.824861    -1.096829    19.214401 
  650000    297.55013   -1072.7155    380.04178   -38.507733    19.291217 
  660000    298.01324    217.66919   -335.50421    33.994964    19.362373 
  670000    302.31112   -1025.3624    -18.48283    1.8727728    19.536656 
  680000    298.14549    -30.19055    -350.9522    35.560231    19.675127 
  690000    299.44001   -53.875831    -301.9799    30.598113     19.86633 
  700000    298.31414   -290.90668   -52.250364    5.2942681    19.942486 
  710000    299.69031   -17.056501   -892.23778    90.405994    19.906759 
  720000    298.31265    131.87009   -596.22916    60.412919    19.893341 
  730000    295.50701    870.63143     506.6449   -51.335795    19.845543 
  740000    298.99878    275.55518     -1055.09      106.907    19.871772 
  750000    299.38148   -680.02983   -879.78996    89.144718    19.949329 
  760000    300.42719    104.69833   -771.50744    78.172991    20.084558 
  770000    295.39044    -343.8958    -158.5842    16.068544    20.207498 
  780000     297.8106   -364.03516   -1418.0505    143.68397    20.437872 
  790000    294.88752   -182.38336    224.34254   -22.731508    20.600015 
  800000    300.15866    351.30395   -278.19271    28.187877    20.705677 
  810000    296.47278   -96.342936    146.13753   -14.807385    20.686221 
  820000    296.77056   -1643.1606   -990.47927    100.36031     20.75149 
  830000    296.45633   -298.41148    250.64469   -25.396574    20.777914 
  840000    298.06471   -551.61715    60.289212   -6.1088044    20.787188 
  850000    298.50585   -76.673044    512.59663   -51.938853     20.81722 
  860000    297.89369    3.8961144    157.74655   -15.983669    20.953768 
  870000    301.21155   -858.40421   -764.18188    77.430729    21.029669 
  880000     296.0573   -289.11697    208.79874   -21.156532    21.106974 
  890000    298.09715    269.13769    170.12358   -17.237772    21.178017 
  900000    298.55269   -186.87643   -314.38962    31.855529    21.124464 
  910000    300.99653    -207.6708   -1313.5116    133.09157    21.173598 
  920000    295.14094    96.728414   -40.388377    4.0923523    21.215085 
  930000    294.89602   -1307.6949    231.69963   -23.476965    21.294052 
  940000    301.91849   -20.700955   -280.51371    28.423052    21.352195 
  950000     299.4746     778.7987    757.71955   -76.775934    21.410473 
  960000     298.8564    104.50131    -332.6066    33.701364     21.52888 
  970000     300.4054   -346.16955    -29.37746    2.9766711    21.670065 
  980000    301.90316    861.85937   -500.66732    50.730117    21.794076 
  990000    297.76599    35.836818   -426.34489    43.199396    21.844721 
 1000000    293.89452   -558.31176   -346.65526    35.124844    21.871159 
 1010000    296.74247     -451.458   -187.31685     18.97988    21.931522 
 1020000    296.57981    318.09598   -68.056502     6.895825    21.951288 
 1030000    295.60873   -52.588217   -314.10341    31.826528    21.997904 
 1040000     297.8799    865.76142    -153.6176    15.565304    22.061225 
 1050000    300.89887    -136.0474   -348.68204    35.330207    22.039834 
 1060000    300.17952   -53.806279   -401.81842    40.714251     22.02692 
 1070000    296.15781    22.928665   -228.58499    23.161374    22.012162 
 1080000    297.35246      769.122   -10.165475    1.0300168    22.043181 
 1090000    297.78443    19.374741   -673.95862    68.288858    22.074741 
 1100000    294.76303    328.39368    845.78551   -85.699217    22.071184 
 1110000    299.28453    362.34322   -394.45391    39.968043    22.080354 
 1120000    301.46561   -168.78087    98.469727   -9.9774451    22.067751 
 1130000    297.35527    708.63285    1029.6475   -104.32903    22.027388 
 1140000    301.00411    -354.5551   -530.75697     53.77895    21.999329 
 1150000    299.13624    901.60036   -592.75087    60.060482    21.925626 
 1160000    302.54752    197.14034   -152.45352    15.447353    21.876482 
 1170000    298.89465     463.0827    1.1897164  -0.12054802    21.871976 
 1180000     299.7912    888.30648   -321.85686    32.612146    21.898773 
 1190000     300.6911    397.92113   -419.52249    42.508116    21.878362 
 1200000    296.74161    13.568129     485.7218   -49.215761    21.830806 
 1210000    294.86822    393.12941   -346.60483    35.119734    21.763851 
 1220000    295.04891   -837.24581   -286.90112    29.070256    21.727677 
 1230000    299.32509    271.67122   -703.62897    71.295206    21.725443 
 1240000    297.73915   -703.98155   -354.01759    35.870832    21.731097 
 1250000    298.52318    143.25343    222.10756   -22.505049    21.694269 
 1260000    295.89034    510.22742   -456.69578      46.2747    21.654282 
 1270000    296.77658     73.42597    776.23653   -78.652167     21.59267 
 1280000    298.99445   -18.443619    92.559255   -9.3785665     21.55549 
 1290000    294.92698    349.73888   -705.52371     71.48719    21.538046 
 1300000    303.24901   -481.79457   -597.85067    60.577219    21.560123 
 1310000    295.59237    1049.8153    568.01394   -57.554012    21.558453 
 1320000    295.64791   -78.639194   -584.31087    59.205299    21.552224 
 1330000    297.60748    838.46738   -601.43719    60.940623    21.563259 
 1340000    301.59742    839.22613   -604.65836    61.267009    21.574289 
 1350000    293.54324    142.17886    206.44913   -20.918459    21.543128 
 1360000    296.04497   -1205.3093   -91.454401    9.2666172    21.512797 
 1370000    299.01326    480.33846   -654.70773    66.338261    21.523152 
 1380000    301.36561     538.0965    191.05145   -19.358288    21.496039 
 1390000     301.8405    921.87618    138.49875   -14.033385    21.527629 
 1400000    294.73787   -422.19232   -660.49995    66.925158    21.543765 
 1410000    297.15253    -460.6827   -280.98275    28.470577    21.579419 
 1420000    300.36299    -46.32718   -390.11856    39.528763    21.643977 
 1430000    300.48393   -370.13446   -731.25613    74.094527    21.694685 
 1440000    296.58435   -916.59168    231.15746    -23.42203    21.770925 
 1450000    298.79743    22.254166   -611.23789    61.933679    21.822757 
 1460000    295.10787    97.149267   -659.10284    66.783595    21.896084 
 1470000    295.46193    34.594487    463.06317   -46.919876    21.929377 
 1480000    297.39026    961.85963     1089.092   -110.35224    21.980193 
 1490000    298.09588    953.46788   -134.18605    13.596402    21.986241 
 1500000    299.14941   -385.30242    802.97769   -81.361714    21.957295 
 1510000    297.91364   -219.78469   -600.25371    60.820707    21.968839 
 1520000    289.75026    278.27155   -412.19564    41.765723    22.011195 
 1530000    297.17054   -298.45159   -1120.5945    113.54424    22.036254 
 1540000    299.00406   -1033.7986   -640.76232    64.925242    22.099176 
 1550000     299.8149    339.96255   -445.36083    45.126186    22.140672 
 1560000    298.00156    332.93944   -453.12018    45.912402    22.178076 
 1570000    294.96077    -485.3631    164.31253   -16.648967    22.254695 
 1580000    298.89204    148.75648   -601.12547    60.909038    22.344423 
 1590000    300.08297   -231.35512     605.2019   -61.322083     22.34911 
 1600000    294.43589   -685.68679   -1179.7339    119.53653    22.383101 
 1610000    298.88271   -45.622628   -326.03124    33.035115    22.381856 
 1620000    296.33499   -1288.8299   -233.80854    23.690651    22.418766 
 1630000    298.93025    425.70194   -265.74748    26.926864    22.399287 
 1640000    296.25199    528.11419    265.00018   -26.851143    22.436811 
 1650000    295.32923    206.62223   -759.46442    76.952732    22.469553 
 1660000    301.99952    651.15109   -537.21718    54.433531    22.468253 
 1670000    295.21242   -273.20841   -561.72967    56.917259    22.464015 
 1680000    297.52167   -38.390225   -165.39155    16.758299    22.448989 
 1690000    297.15947   -126.27949   -225.67206    22.866221    22.439523 
 1700000    297.84626    -72.61175    -500.7336    50.736832    22.445288 
 1710000    302.15582    391.94011   -1263.6618    128.04053    22.476742 
 1720000    295.17823   -356.22799    97.976371   -9.9274558    22.474115 
 1730000    298.71637   -719.59062   -625.89013    63.418317    22.469361 
 1740000    297.65272   -598.16442   -99.594246    10.091387     22.44801 
 1750000     300.9409   -131.22866   -1120.1758    113.50181    22.450384 
 1760000    298.69164    433.45592   -820.14726    83.101421     22.45941 
 1770000    298.70418   -115.46541   -267.23334    27.077419    22.486233 
 1780000    298.81613    1069.1043   -109.16149    11.060788    22.524315 
 1790000    298.02333    187.94103   -260.81167    26.426742    22.525295 
 1800000    295.39221    1001.2046   -484.41682    49.083535    22.504762 
 1810000    303.33074    176.99386    -686.2108    69.530309    22.487392 
 1820000    298.91641   -445.97411   -30.479796    3.0883654    22.470456 
 1830000    296.85338   -675.00293    12.842091   -1.3012249    22.483402 
 1840000    301.12096   -321.68717    117.85917   -11.942081    22.477894 
 1850000    299.54102    1198.4201     159.8501   -16.196811    22.454001 
 1860000    296.72543    676.40262   -55.836398    5.6576231     22.46336 
 1870000    297.60301    567.00799    74.445202   -7.5431601    22.467965 
 1880000     300.2712     184.9213    166.12774   -16.832893    22.462051 
 1890000    297.14691    -298.0507    616.46187   -62.462999    22.444932 
 1900000    298.99355    55.120596   -298.98888    30.295049    22.411087 
 1910000    298.79236   -231.77688     -89.4802    9.0665812     22.35565 
 1920000    303.71236   -508.05402   -715.60713    72.508892    22.296972 
 1930000    297.05847   -593.59479   -325.93501    33.025365    22.323569 
 1940000    297.82396   -273.91296    328.47182   -33.282408    22.327694 
 1950000    296.60536   -1029.7516    188.77195   -19.127318    22.359216 
 1960000    296.51491   -582.35758    -470.6907    47.692736    22.364278 
 1970000    299.93247    534.20302    277.82314   -28.150429    22.369548 
 1980000    297.45325   -486.68769    380.54946   -38.559174    22.328149 
 1990000    302.63057     894.8545   -461.33851    46.745124    22.322034 
 2000000    301.91852    318.42778   -972.10609    98.498649    22.275563 
 2010000    297.43094    435.75633   -903.73449    91.570897    22.230602 
 2020000    298.47498    397.42557   -101.37264    10.271583    22.205364 
 2030000     298.7482    -115.0134   -619.18295    62.738712     22.21105 
 2040000    293.82015   -291.78433   -168.35534    17.058605    22.200325 
 2050000    295.39955    221.32813    -431.8851    43.760758     22.21175 
 2060000    297.96842    392.25795   -718.79381    72.831783    22.229709 
 2070000    298.29927   -1175.1717    551.70629   -55.901639    22.244142 
 2080000    296.26598   -130.07874   -289.67011    29.350824    22.270028 
 2090000    301.90412   -283.69949   -238.04696    24.120108    22.283462 
 2100000    300.74822   -847.81147   -897.36578    90.925588    22.273455 
 2110000    297.65586    348.66866   -308.90516    31.299815    22.273271 
 2120000     299.7063   -491.17811   -73.730565    7.4707495    22.321726 
 2130000    297.51477    578.96939    -463.1724    46.930944    22.354314 
 2140000    297.10276    593.35851    125.29943   -12.695964    22.374189 
 2150000    297.41413   -341.96211   -337.07183    34.153803    22.365848 
 2160000    296.86599    219.85265     607.9681   -61.602368    22.375358 
 2170000    300.90567    407.84776    536.12551   -54.322917    22.389258 
 2180000    304.83041    14.732298   -272.78032    27.639466    22.397022 
 2190000    299.69406     50.86077    588.27471   -59.606935    22.413496 
 2200000    298.62778   -531.72911   -393.39538    39.860786    22.413835 
 2210000    300.91265    178.04489   -902.11332    91.406632    22.405306 
 2220000    293.05244   -34.654318   -498.69001    50.529765    22.348758 
 2230000    295.57863   -118.43068   -182.69357    18.511426    22.314253 
 2240000    304.73649    497.04338   -637.81168    64.626269     22.30283 
 2250000    297.33514    60.273509   -820.15925    83.102636     22.31804 
 2260000    300.44188   -962.57393    19.501566   -1.9759962    22.337008 
 2270000    296.33869    122.50642    567.29941   -57.481612    22.378429 
 2280000     298.3824    721.54615    42.256498   -4.2816396    22.418517 
 2290000    302.66401   -241.16946   -24.659207    2.4985941    22.449772 
 2300000    301.36801   -622.31052   -436.76469    44.255182    22.434722 
 2310000    295.10567   -1366.7164   -790.10729    80.057622    22.427853 
 2320000    297.55156    846.02182    142.94114   -14.483511    22.436558 
 2330000     300.4108   -560.24019    227.91015   -23.092996    22.436423 
 2340000    298.52678   -9.6566373    595.84307   -60.373799    22.455648 
 2350000    297.21634    84.440134   -14.685916    1.4880504    22.490055 
 2360000    299.31613   -365.03098   -724.89989    73.450481    22.520566 
 2370000    299.44174   -617.98464    -236.1315    23.926024     22.55686 
 2380000    301.30254    -26.16948   -597.99096    60.591434    22.575096 
 2390000    296.59017   -1343.4548    250.08129   -25.339487    22.586467 
 2400000     296.4505    288.98324    114.69015   -11.620979     22.62775 
 2410000    294.93381   -986.09319   -482.61425    48.900889    22.650516 
 2420000    293.96587   -159.74559    58.851355   -5.9631135    22.656437 
 2430000    296.30287    116.01225   -320.91292    32.516501    22.659575 
 2440000    298.91929    288.84822   -804.72847    81.539112    22.657321 
 2450000    302.67022   -788.03203   -506.36826    51.307764    22.663435 
 2460000     297.0548   -737.12891    -506.9571    51.367428    22.671904 
 2470000    295.36685    766.97033    509.68804   -51.644141    22.692792 
 2480000    300.14153     848.5029   -6.9475682   0.70396235    22.725773 
 2490000    297.80463   -714.50235   -343.94357    34.850082    22.725164 
 2500000    299.56549   -497.81556    741.99487    -75.18263    22.699441 
 2510000    299.01309    127.97549    388.45433   -39.360135    22.716192 
 2520000    297.46275    805.00223   -260.48632    26.393776    22.708238 
 2530000    293.46587    867.01443   -51.009517    5.1685393    22.696821 
 2540000    297.15409    17.075267    562.51263   -56.996592    22.682525 
 2550000    296.40429   -558.04634   -51.056183    5.1732678    22.670735 
 2560000    302.65436     655.2964   -344.94546    34.951599    22.663561 
 2570000    297.80248   -618.08753    363.45984   -36.827568    22.667167 
 2580000    296.41065   -218.56657   -1073.8405    108.80689    22.670733 
 2590000    294.82683    738.61634   -804.14257    81.479746    22.693187 
 2600000    294.81705    175.17529    20.141971   -2.0408852    22.702998 
 2610000    297.56886    297.63366    -935.4691    94.786407    22.690826 
 2620000    299.86896   -331.16054    394.12528   -39.934744    22.709179 
 2630000    297.40845    -409.4646   -152.69682    15.472005    22.743179 
 2640000    294.32548    207.59495   -861.82849    87.324772    22.773053 
 2650000    291.70707    -1181.374    423.51385    -42.91254    22.811994 
 2660000    295.88965   -412.02773    31.334756   -3.1749941    22.839935 
 2670000      298.291    1482.6411   -37.187796    3.7680534    22.886063 
 2680000    298.00102     676.7002   -971.45782    98.432964    22.931199 
 2690000    295.01793   -552.86901   -191.68661    19.422646    22.976392 
 2700000     299.4155    438.27301   -481.39757    48.777609    23.003232 
 2710000    296.61381   -201.70895    26.705395   -2.7059241     23.03199 
 2720000    296.19235    -684.8165   -603.99795    61.200092    23.059956 
 2730000    296.90883    -411.1987    32.930287   -3.3366613    23.096997 
 2740000    293.31198   -739.45384    388.12522   -39.326788    23.118253 
 2750000    297.00004    65.307275    260.79178   -26.424727    23.120207 
 2760000    295.85047    476.65229   -580.27124    58.795984    23.127214 
 2770000    299.73382    419.12598   -208.99627    21.176547    23.134429 
 2780000     297.5802    41.566714   -404.28935    40.964619    23.135776 
 2790000    301.65923    990.60235   -332.82724     33.72372    23.170241 
 2800000    299.96427   -218.75656    160.64384   -16.277237    23.195569 
 2810000    298.88837    390.02695   -752.23724    76.220438    23.204796 
 2820000     301.7307   -891.90778    -981.2069    99.420789    23.222566 
 2830000    296.71203    558.36052   -815.89949    82.671015    23.246842 
 2840000    294.83307    142.40852   -313.61452    31.776992    23.263912 
 2850000    296.58164    51.382056    590.87591   -59.870501    23.297664 
 2860000    296.25434   -93.828867   -598.12382    60.604896    23.309473 
 2870000    301.06899    368.57987   -602.99287    61.098252    23.322107 
 2880000    300.16763   -107.16818   -1288.0903    130.51575    23.312305 
 2890000     297.0543    297.11129   -1070.7163    108.49033    23.302237 
 2900000    298.53302    481.29015   -172.80918     17.50989    23.317836 
 2910000    303.73835    248.29731    131.45402   -13.319578    23.342605 
 2920000    296.71237     1293.807   -1414.8347    143.35813    23.345893 
 2930000    297.61228    -51.55616    96.403179   -9.7680521    23.349577 
 2940000    299.30015    969.68683    -370.1995    37.510464    23.365366 
 2950000    298.57899    612.51414   -483.89587    49.030749    23.384876 
 2960000    293.88932   -852.90139    1103.7674   -111.83924    23.407686 
 2970000    299.72537    6.3834151   -185.82931    18.829155    23.403027 
 2980000    294.68833    195.41033   -364.62613    36.945743    23.376735 
 2990000    300.29473    1378.7914      128.616   -13.032017    23.368202 
 3000000    293.48105   -1263.5617    270.79728   -27.438534    23.368943 
 3010000    301.92749    549.22926   -240.52488    24.371184    23.356084 
 3020000    305.98445    887.62026    -742.0636    75.189595    23.348184 
 3030000    297.53808    56.143055    99.629481   -10.094957    23.339656 
 3040000    292.04488    73.093047   -227.90705    23.092681    23.326523 
 3050000    296.16909     553.8171   -449.59521    45.555235    23.328387 
 3060000    298.87921     304.9171   -102.50991    10.386817    23.313685 
 3070000    297.06495    492.95635    523.03725   -52.996749    23.291702 
 3080000    298.26285    142.68966   -594.73689    60.261715    23.290194 
 3090000    302.07717   0.47717898   -65.691367    6.6561778    23.286776 
 3100000    298.40153    50.903869   -441.36565    44.721374    23.293058 
 3110000    297.22402    315.38527    113.04195   -11.453976    23.288058 
 3120000    298.77947   -83.392923   -80.173925    8.1236229    23.279306 
 3130000    296.25819    51.726411    209.70056   -21.247909    23.272226 
 3140000    296.42388   -732.83817    97.571399    -9.886422    23.274717 
 3150000    299.17368    64.706229    338.29971   -34.278219    23.258614 
 3160000    296.08694    923.65139   -248.86119     25.21586    23.274149 
 3170000    299.06055    427.28181   -81.016773    8.2090245    23.274898 
 3180000    297.46032   -649.05234   -873.46593    88.503936    23.258956 
 3190000    300.12353    293.85668    320.54557    -32.47928    23.243303 
 3200000    294.91151    291.07402   -659.51365     66.82522    23.244161 
 3210000    303.08115   -159.17375    880.31938   -89.198361     23.25259 
 3220000     296.9289    404.67374   -605.13205    61.315005    23.253093 
 3230000    299.97466   -52.495028    242.99793   -24.621765    23.233697 
 3240000    299.01282   -714.90844   -354.96507    35.966836    23.225163 
 3250000    299.87272   -699.70017    577.67443   -58.532862    23.223164 
 3260000    296.03581   -515.44391   -699.25722    70.852238    23.223579 
 3270000    297.33463   -460.81522   -613.49397    62.162276    23.218209 
 3280000    298.36908    350.57191    131.18285   -13.292102    23.218831 
 3290000    297.42063    736.76885    121.43319   -12.304218    23.217603 
 3300000    302.82197     208.6428   -497.01114    50.359653     23.21534 
 3310000    298.59812    54.292399    159.50182   -16.161522      23.2375 
 3320000    295.45317   -474.08049   -666.21849    67.504589    23.273935 
 3330000    300.65441   -143.61244    -522.5451    52.946882    23.292553 
 3340000    299.57073   -484.57291   -237.04687    24.018775    23.295509 
 3350000    301.37149     -429.313   -551.23094    55.853475    23.307726 
 3360000    296.35326   -244.11025     772.4602    -78.26953    23.332014 
 3370000    296.53284    14.889573    219.80075   -22.271311    23.362809 
 3380000    298.14267    651.57584   -213.01219     21.58346    23.382244 
 3390000     294.9099    205.80917    657.13929   -66.584638    23.390536 
 3400000    297.59132   -94.305546   -668.72192    67.758248    23.397042 
 3410000    299.90278   -235.05856    -631.6033    63.997204    23.422357 
 3420000    296.76545   -511.56979    306.63193    -31.06948    23.422775 
 3430000    296.56803    782.64564     87.51332   -8.8672871    23.435286 
 3440000    299.55002   -113.35283   -86.923723    8.8075462    23.469327 
 3450000    300.33395    694.49376   -314.22355    31.838701    23.480518 
 3460000    297.84081    55.304576   -134.29039    13.606974    23.490658 
 3470000    304.28998    734.23664   -1785.4543    180.91115    23.505358 
 3480000    299.96588    310.75983    109.68522   -11.113855    23.525279 
 3490000    297.11462   -598.05695   -667.99681    67.684777    23.544461 
 3500000    295.92595   -659.12732    235.90197   -23.902767    23.584126 
 3510000    301.23431    511.66324   -1103.2346    111.78524    23.603831 
 3520000      297.405    306.62124   -176.93533    17.927972    23.609063 
 3530000    294.75999    918.44948    225.61723   -22.860665     23.61235 
 3540000    301.73809     2.445785   -1254.0944    127.07111    23.618743 
 3550000    298.84085    622.12306   -373.73855    37.869058    23.619244 
 3560000    301.05723   -357.07178     343.6886   -34.824248    23.632143 
 3570000     295.2185   -42.015179   -534.65482    54.173899    23.653002 
 3580000    299.34849    620.27749   -546.56295    55.380491    23.652203 
 3590000    297.00847    -86.78632     294.1479   -29.804536     23.64916 
 3600000    300.50152   -459.42841    209.02773   -21.179735    23.647474 
 3610000    300.12988    32.041055   -647.10445    65.567859    23.647432 
 3620000    299.13664   -19.121652   -1301.6342    131.88809    23.650883 
 3630000    298.12151    1133.3525    -764.0519    77.417559    23.660417 
 3640000    298.67401   -433.44811    471.44558   -47.769223     23.66225 
 3650000    299.34704    544.38658   -1116.1761    113.09654    23.661103 
 3660000    296.56625    1045.3757    105.99574   -10.740018    23.662508 
 3670000    299.40983      342.946   -160.87282    16.300438    23.679033 
 3680000    297.15665    394.05448   -674.89298    68.383531    23.686512 
 3690000     298.1491     829.5835   -267.99215    27.154305    23.695872 
 3700000    299.12065     194.0805   -451.06332    45.703991    23.687126 
 3710000    297.76466    923.83032   -440.18359    44.601602    23.677339 
 3720000     292.9466    726.80821    724.15435    -73.37494    23.650864 
 3730000    299.04257    1052.5604    553.28057   -56.061154    23.646314 
 3740000    292.28582    485.82525   -191.10719    19.363936    23.640407 
 3750000    299.76064   -274.36325    377.76044   -38.276576    23.641609 
 3760000    295.04686    12.247471   -755.42635    76.543575    23.630824 
 3770000    296.75205   -241.70688   -1065.4023    107.95188      23.5997 
 3780000    296.63746    419.54979   -249.37056    25.267472    23.565297 
 3790000    298.99197    443.79086   -198.73917    20.137247    23.536679 
 3800000    295.95691   -502.77258    -290.5351    29.438469    23.529178 
 3810000    296.94493    598.94321    539.40587   -54.655299    23.525765 
 3820000    299.96568   -326.22872   -366.31707    37.117077     23.51764 
 3830000    297.06923    350.96261   -53.148531    5.3852749    23.495232 
 3840000     293.7209    797.38165    -252.2326    25.557469    23.486034 
 3850000    298.99566    437.34849   -694.63092    70.383478    23.496352 
 3860000    298.97368   -112.25608    186.17502   -18.864184    23.495531 
 3870000    299.41951    598.78986   -542.56279    54.975175    23.488689 
 3880000    298.04432   -127.29922   -129.72992    13.144884    23.483109 
 3890000    297.30662   -416.66178   -973.28399       98.618    23.481255 
 3900000    297.87556    382.28358   -588.66862    59.646848    23.478862 
 3910000    300.35099   -538.95669   -814.64216    82.543617    23.485597 
 3920000    296.82272   -5.5721533   -720.20966    72.975244     23.49636 
 3930000    296.15018    280.25954   -415.02702    42.052613    23.494929 
 3940000    296.95699   -753.96447   -382.02048    38.708225    23.494664 
 3950000     297.0156   -1023.4891   -507.50759    51.423206    23.493979 
 3960000    301.12147   -62.007157   -303.70232    30.772638     23.50543 
 3970000    299.69296    156.77272    222.79855   -22.575063    23.524843 
 3980000     297.8151   -901.83723   -516.67337    52.351929       23.538 
 3990000    298.72336    71.003385    173.42527   -17.572315    23.556621 
 4000000     299.6434    618.53331    37.641809   -3.8140562     23.55796 
 4010000    299.91781    245.50847   -1369.1575    138.72988    23.548281 
 4020000    300.41115    281.39514   -352.45719    35.712725    23.528261 
 4030000    296.09991    539.32627   -35.285094    3.5752621    23.515541 
 4040000     297.4412   -194.88298   -244.06754    24.730143    23.496701 
 4050000    300.57335     21.30156   -96.957907    9.8242599     23.47602 
 4060000     299.1617   -482.44658   -381.13336    38.618338    23.465963 
 4070000    295.49812   -150.20815   -501.77592    50.842445    23.459772 
 4080000    294.70884   -797.74038   -372.15758    37.708867    23.448054 
 4090000    297.59016    58.630855   -15.176917    1.5378011    23.429525 
 4100000    302.06803    50.291432   -41.665027    4.2217088    23.439868 
 4110000    299.03065    -29.36388   -36.849884    3.7338144    23.438382 
 4120000    294.03687    425.44716   -411.59622    41.704987    23.444336 
 4130000    298.67551    225.29632   -137.82397    13.965014    23.456188 
 4140000    294.67298   -551.22191    480.46454    -48.68307    23.470142 
 4150000    297.24991   -523.50086   -265.48139    26.899902    23.481178 
 4160000    299.75446   -174.48161    360.65615   -36.543485    23.483971 
 4170000    298.50136    197.74845   -636.17912     64.46085    23.481402 
 4180000     297.8616   -295.78424    -941.4454    95.391955    23.493372 
 4190000    297.95174   -227.46008   -59.838903    6.0631769    23.498057 
 4200000    298.63449    56.250738   -667.95043    67.680078    23.490013 
 4210000    298.14604    760.63676    842.97672   -85.414616    23.493645 
 4220000    296.04332   -413.84368    177.43129   -17.978226    23.485508 
 4230000    299.29322    44.335831   -293.30957    29.719592    23.479922 
 4240000    296.62999    475.90189    491.91008   -49.842789      23.4754 
 4250000    300.12014    538.34003    235.36265   -23.848121    23.476975 
 4260000    298.88391   -476.58065    516.77953   -52.362686    23.480469 
 4270000    297.00836    1383.3686    358.28945   -36.303679    23.474141 
 4280000    298.44278   -389.46736   -633.59599    64.199114    23.459548 
 4290000    296.73829   -101.74988   -202.59511     20.52795    23.459759 
 4300000    297.41273    583.25771   -677.02766    68.599827    23.470943 
 4310000    301.43693   -45.165621   -253.55367    25.691326    23.470283 
 4320000    299.28411    93.171365   -50.888039    5.1562306    23.456692 
 4330000    294.24435    741.86613   -301.72455     30.57224    23.464666 
 4340000    293.62752    707.23039   -674.67317    68.361259    23.477176 
 4350000    298.59539    234.54584   -66.746846    6.7631241    23.506758 
 4360000    293.53135    10.662189    64.236807   -6.5087945    23.531247 
 4370000    295.84393    -111.7506    221.77347   -22.471197    23.547772 
 4380000    293.09211   -1422.5511   -1125.3332    114.02439     23.55926 
 4390000    299.22511    436.28804   -476.26153      48.2572     23.56239 
 4400000    299.29702    486.21064   -174.07621    17.638272    23.567083 
 4410000    299.55411   -39.592657   -1170.2089    118.57142    23.571082 
 4420000    297.56238    233.32338   -337.65708    34.213104    23.583514 
 4430000    299.69881    -189.1421     256.0112   -25.940334    23.611254 
 4440000    298.06087    370.79284    -273.8241    27.745227    23.611144 
 4450000    298.55816     41.69818   -846.86283    85.808376    23.621637 
 4460000    299.22891    550.14998   -251.56978    25.490307    23.630596 
 4470000    290.37126   -513.40496   -1483.8073    150.34677    23.649628 
 4480000     298.9512    1140.8364   -793.14099    80.365011     23.66096 
 4490000    300.60505    108.59724    92.960373   -9.4192098    23.660598 
 4500000    297.96911    39.664794    -271.5794    27.517783    23.662777 
 4510000    302.26842   -139.15843   -508.09104    51.482325     23.66724 
 4520000    297.21097   -148.47278   -521.20109    52.810701    23.665812 
 4530000     296.8568    223.64958    102.28177   -10.363701    23.670411 
 4540000    297.49985    207.16615    776.45188   -78.673987    23.691183 
 4550000    296.90848   -418.88865   -291.77303    29.563902    23.698976 
 4560000     298.7346    102.51162    126.89937   -12.858079    23.724307 
 4570000    299.65269    308.13992   -782.72505    79.309616    23.734163 
 4580000     299.9509     898.0098   -1201.0007     121.6914    23.745888 
 4590000    296.05617    868.52465   -419.77343    42.533543    23.759966 
 4600000    298.84334    118.67118    53.274929   -5.3980822    23.770165 
 4610000    300.49087    968.64431   -319.43055    32.366301    23.801223 
 4620000     297.9557    331.17777   -356.74198    36.146881     23.82955 
 4630000    299.29965    58.125388   -123.35334    12.498778     23.83015 
 4640000    298.25317    878.67721   -496.09781    50.267111    23.832646 
 4650000    295.82959    138.04816   -89.562113    9.0748811    23.833634 
 4660000    294.61301     375.5664   -196.82434    19.943226    23.843237 
 4670000    297.21786   -359.93385    179.86399   -18.224718    23.862017 
 4680000    295.61234    667.78457   -279.35524    28.305669     23.87679 
 4690000     295.0467    116.77172   -7.5319258   0.76317239    23.875667 
 4700000    299.09557    156.11943    603.19066   -61.118294    23.877962 
 4710000    299.83225    457.14644    348.39445   -35.301068    23.861783 
 4720000    299.33241    20.698547   -600.65092    60.860955    23.852003 
 4730000    299.52912    679.25966   -433.03385    43.877155    23.840716 
 4740000    296.27082   -219.79141     -236.525    23.965895    23.830418 
 4750000    305.07526   -806.96643    510.42121   -51.718429    23.808779 
 4760000    295.41088   -169.23198    239.86829   -24.304654    23.799994 
 4770000    299.44819   -357.19319   -242.18831    24.539731    23.808056 
 4780000    295.30434   -92.619649   -23.240678    2.3548617    23.829963 
 4790000    298.52412   -116.61937    122.83401   -12.446157    23.850915 
 4800000    294.11144    428.63761   -613.68098    62.181226    23.868544 
 4810000     300.4355    602.17395   -307.70813    31.178526    23.894749 
 4820000    298.26314    257.37385    285.90244   -28.969065    23.915022 
 4830000    300.18637   -1271.2456   -406.15973    41.154135    23.926863 
 4840000    299.00824    255.90172   -1275.8748    129.27801    23.930003 
 4850000    297.02511    288.16983    231.59433   -23.466295    23.920695 
 4860000    295.20187     754.6879   -785.42632    79.583322    23.925008 
 4870000    297.28101    740.77729   -876.60672    88.822176    23.943936 
 4880000    295.76754    994.02937    169.31588   -17.155932    23.946786 
 4890000     297.7575    -580.2479    341.44126   -34.596536    23.955665 
 4900000    294.01605   -262.96834    73.123145   -7.4092027     23.95327 
 4910000    295.66144   -5.0549653   -240.69357    24.388276    23.950066 
 4920000    294.12318    173.37602   -54.013489    5.4729168    23.951983 
 4930000    294.31546   -174.05718   -411.36351    41.681408    23.964237 
 4940000    298.66125   -161.50203    440.62218   -44.646043    23.974687 
 4950000     298.9389    1238.2771   -1134.4092    114.94401    23.986059 
 4960000    295.25238    734.76413   -44.956151     4.555182    24.002407 
 4970000    296.42628   -1180.9998   -78.869305    7.9914323    24.009192 
 4980000    297.17219   -712.90757   -462.54729    46.867604    24.014263 
 4990000    296.74952    1189.5237   -315.51672    31.969732    24.005428 
 5000000    300.00478    214.65273   -185.90997    18.837327    23.984534 
 5010000    296.56602   -329.14315   -971.94747    98.482577    23.984618 
 5020000    294.59981    417.94545   -633.32877    64.172037    23.998091 
 5030000    294.79186    512.42985    416.65996   -42.218071    23.993641 
 5040000    296.73297     791.7479    133.46921   -13.523768    23.991125 
 5050000      293.064   -44.300776    -488.1405    49.460836    23.976661 
 5060000    294.39329   -476.32275   -387.20696    39.233745    23.952566 
 5070000     297.7262   -216.50427   -686.90166     69.60031    23.944941 
 5080000     298.0121   -59.518459   -795.83365    80.637845    23.941848 
 5090000    295.96263    351.05573   -71.429978    7.2376425    23.944666 
 5100000    299.48098    402.50149   -631.33092    63.969606    23.945383 
 5110000    296.42949   -82.216489    -56.14615    5.6890086    23.956917 
 5120000    297.40533   -643.12644   -523.72963    53.066904    23.951522 
 5130000    293.25619    1100.6184   -180.65946     18.30532    23.950179 
 5140000    295.26112   -147.92107   -188.73178    19.123248    23.949263 
 5150000    297.64097     494.9914    -246.5427    24.980939    23.945088 
 5160000    298.01333    185.79615   -776.55881    78.684821    23.938912 
 5170000    296.09813    253.38065   -38.673832     3.918626    23.934243 
 5180000    300.23972   -127.04327   -1133.2822    114.82982    23.927805 
 5190000    298.66758    733.70047    493.65523   -50.019616    23.924295 
 5200000    295.10049    746.59102    458.07126    -46.41407    23.907044 
 5210000    299.92369    90.207334     445.7698   -45.167625    23.881848 
 5220000     295.8641   -285.41051   -1116.3762    113.11682    23.869122 
 5230000    299.47159   -280.34706    -97.37724    9.8667488    23.859258 
 5240000     299.5759    126.93304   -575.37956    58.300334    23.856317 
 5250000    302.08053    314.43009   -372.09604    37.702632    23.851224 
 5260000    296.33333   -1008.4096   -73.431705    7.4404675    23.842992 
 5270000    298.60595   -16.549121    433.99802   -43.974849    23.845163 
 5280000    299.82898    702.39966    163.59485   -16.576248    23.844688 
 5290000    302.99649    539.81648    -111.9916    11.347549    23.838358 
 5300000    297.92316   -1120.8202   -226.54991     22.95517    23.845266 
 5310000    300.02766    497.27665   -350.14857    35.478804    23.842051 
 5320000     299.5903    647.92661   -1016.4653    102.99334     23.85325 
 5330000    295.93997    -95.78126    431.59518   -43.731382    23.847476 
 5340000     296.6184    147.57486   -867.05443     87.85429    23.845694 
 5350000    295.61173    883.49553   -336.24731    34.070259     23.84212 
 5360000    299.49355   -342.55792   -378.30766    38.332024     23.83312 
 5370000     301.7359   -94.230485   -1084.0758    109.84398    23.837592 
 5380000    300.69677    183.60215   -572.74082    58.032963    23.840152 
 5390000     299.0799    413.41868   -559.00478    56.641159    23.840671 
 5400000    294.69187    203.39377   -382.36227    38.742857    23.842331 
 5410000    298.27813    370.78156    396.42481   -40.167744    23.854256 
 5420000     299.9763    836.92855   -641.36962    64.986777    23.859712 
 5430000     296.7673   -487.93382   -436.46862    44.225182    23.875882 
 5440000    301.34697    1697.3907   -643.42077     65.19461    23.888051 
 5450000    300.31618   -34.098363    197.74372   -20.036382    23.897341 
 5460000    299.04848    325.89375   -185.93067    18.839425    23.915313 
 5470000    298.35479    344.92662    475.83586   -48.214069     23.92829 
 5480000    296.68719   -244.38934   -289.95559    29.379751    23.938375 
 5490000    296.34006    679.84958   -7.2289804   0.73247644     23.93647 
 5500000    294.43539   -519.47918   -262.72331    26.620439      23.9452 
 5510000    296.76509    508.94642    -229.5444    23.258586    23.952465 
 5520000    298.90069    533.46238    793.29105   -80.380215    23.961082 
 5530000    296.59912   -242.58482    158.11379   -16.020879    23.957589 
 5540000     298.2363     83.23917   -17.820915    1.8057042    23.955407 
 5550000    299.68511   -268.23524    429.43085    -43.51208    23.951659 
 5560000    294.24845   -629.72688   -123.15674    12.478857    23.946528 
 5570000    296.80209   -910.25595   -1131.4991    114.64915    23.956675 
 5580000    300.01926    592.12877   -5.3855999   0.54569591    23.956103 
 5590000    296.50929    158.34628   -254.07527    25.744177     23.94822 
 5600000    298.19608    1438.2695   -860.37654    87.177653    23.946151 
 5610000    296.05467    80.627753   -379.71197    38.474315    23.958894 
 5620000    297.72918    786.67605    461.97874   -46.809996    23.957844 
 5630000    295.11302    70.438591   -876.23637     88.78465    23.959241 
 5640000    296.67999   -930.88143   -178.53182    18.089736    23.964584 
 5650000    297.87905   -612.23531   -1145.9185    116.11019    23.965777 
 5660000    299.02689   -809.42841    74.275449   -7.5259598    23.964244 
 5670000     294.1192   -37.309489   -319.10518    32.333333    23.974114 
 5680000    299.98844    426.07003   -122.87767     12.45058    23.978105 
 5690000    300.44019   -332.43958     344.8462   -34.941541    23.975845 
 5700000    297.85575    734.82605   -223.68968    22.665357    23.960121 
 5710000    297.26224   -639.85095   -501.36256    50.800562    23.960389 
 5720000     301.1259    547.47588   -467.34747    47.353983    23.965015 
 5730000    300.15266   -1112.2444    248.31651    -25.16067    23.960324 
 5740000    298.08521    72.229398   -417.06203     42.25881    23.971886 
 5750000    299.43786    568.29169   -417.93846    42.347615    23.982085 
 5760000    298.61646   -599.89122   -1693.7109    171.61526    23.995033 
 5770000    296.16308    219.85737   -265.52916    26.904742    24.018021 
 5780000    299.40442   -99.457798    -714.6544    72.412357    24.042753 
 5790000    297.95681    425.31885    52.770701   -5.3469912    24.064931 
 5800000    303.36461   -71.572499   -1347.4479    136.53016    24.091561 
 5810000    298.91436    135.05214    697.96676   -70.721482    24.110491 
 5820000    295.27914   -950.77817   -508.96979    51.571364    24.128341 
 5830000    298.87381   -215.90521   -225.58638     22.85754    24.137303 
 5840000    298.12928   -567.22755   -422.86015    42.846304     24.15887 
 5850000    296.86404   -420.62634   -490.56651    49.706651     24.17227 
 5860000     297.7389   -494.05378   -436.40222    44.218455    24.189589 
 5870000    302.75036   -513.80438   -416.54904    42.206831    24.204075 
 5880000    299.30806    651.01707    -731.7535    74.144923    24.215119 
 5890000    295.80045    264.58871   -443.57588    44.945326    24.230168 
 5900000    297.77098    1378.5529     578.1579   -58.581849    24.242624 
 5910000    296.12938    266.78011    125.29919    -12.69594    24.246466 
 5920000    295.21172   -179.61198   -1202.7579    121.86945    24.232722 
 5930000    295.78843    4.0352292   -799.64231    81.023758    24.238704 
 5940000    299.09694   -296.80654    34.261485    -3.471545     24.24813 
 5950000    296.68054    282.85786    140.42842    -14.22891    24.266585 
 5960000    300.04862    186.69185   -834.18922    84.524223    24.275316 
 5970000    297.48183    -621.0913    200.21294   -20.286577    24.291367 
 5980000    301.93974   -392.16365   -870.95364    88.249377    24.289165 
 5990000     293.9028    402.32354    287.66984   -29.148147    24.288499 
 6000000     298.6195    754.08603    741.86223   -75.169191     24.29019 
 6010000    297.84192    256.48653    543.09043   -55.028638    24.288477 
 6020000    297.65242   -175.25626   -691.48467    70.064684    24.307553 
 6030000    297.32591   -810.15792   -674.08573    68.301737    24.315368 
 6040000    297.60045   -470.26124   -474.52878    48.081628    24.316324 
 6050000    296.79573   -193.91628    -1053.259    106.72146    24.326457 
 6060000    296.64939    480.54537    289.89391     -29.3735    24.335455 
 6070000    297.89416   -216.12298   -421.09634    42.667587    24.342866 
 6080000    298.29174    768.75187   -536.94868    54.406325    24.348926 
 6090000    296.33978    -1075.671   -966.93645    97.974836    24.355743 
 6100000    297.52482    358.94338    445.77795   -45.168451    24.365017 
 6110000    299.70897    -223.1752   -1204.3219    122.02792    24.366899 
 6120000    294.42255    235.13736   -431.63167    43.735079    24.368557 
 6130000    298.59362    1244.9471   -507.60767    51.433348    24.370743 
 6140000    293.21611   -188.96228   -210.66925    21.346062    24.376048 
 6150000     300.8613    841.77956   -76.215496    7.7225351    24.384652 
 6160000    297.02441   -302.43762    289.59858   -29.343576    24.377078 
 6170000     300.0778   -17.179326   -929.25688    94.156953    24.382512 
 6180000    296.22121   -60.110898   -345.41268     34.99894    24.382077 
 6190000    295.33159    -437.1578    183.53047   -18.596224    24.394458 
 6200000    297.05332   -133.71139   -211.32046    21.412045    24.396211 
 6210000    299.46033    489.62348   -761.22866    77.131494    24.403772 
 6220000    299.59769    955.22931   -695.39194    70.460588    24.408726 
 6230000    297.50466   -584.12037   -102.57646     10.39356    24.410954 
 6240000    296.08341   -853.41897   -1240.7735    125.72138      24.4057 
 6250000    302.35162    80.480349    -104.5776    10.596325    24.405421 
 6260000    296.23673     844.8467   -14.302181    1.4491685     24.39657 
 6270000    293.92711    -513.8996   -455.25734     46.12895    24.382833 
 6280000    297.04185   -207.25308   -169.80887    17.205884    24.374332 
 6290000    296.86475   -156.48855   -150.46114    15.245475    24.365263 
 6300000    298.80789   -49.619288   -606.97638    61.501882    24.359277 
 6310000    299.43857    1304.8388    117.65169   -11.921057    24.355634 
 6320000    302.67027   -1080.6664   -502.65976       50.932    24.362107 
 6330000     297.1458   -487.10758   -130.84186    13.257551    24.361273 
 6340000    295.98268   -150.68481    153.99699   -15.603745    24.359944 
 6350000    301.07063    2133.9146   -300.44945    30.443041    24.354084 
 6360000    297.68553   -536.55792    49.073183   -4.9723403    24.343162 
 6370000    300.58283    212.37113    631.40152   -63.976759    24.333597 
 6380000    302.01189   -880.13649   -113.77392    11.528142    24.325324 
 6390000    300.74642   -405.68118     570.0636   -57.761694    24.327151 
 6400000    295.79538   -419.63937   -126.07428    12.774476    24.339676 
 6410000     301.4297    598.29305      245.662   -24.891702    24.339627 
 6420000    299.39387    490.69784   -362.43368    36.723593    24.334817 
 6430000    295.68905    957.53628   -667.96335    67.681387    24.341401 
 6440000    291.22126   -210.37379     453.4065   -45.941413    24.337143 
 6450000    298.83702   -97.239421   -332.57105    33.697761    24.333587 
 6460000    294.87494    18.579401    40.723304   -4.1262888    24.337451 
 6470000    295.36223    112.73313    -640.6848    64.917387    24.341521 
 6480000    295.80766     377.1948    57.924279   -5.8691776    24.347165 
 6490000    296.02145    -191.0252     1095.191   -110.97023    24.352982 
 6500000    297.27897   -126.81268    210.43796   -21.322627    24.354939 
 6510000    295.85329   -33.293729   -429.42328    43.511314    24.359637 
 6520000    294.09469    168.30691    342.53024   -34.706876    24.361211 
 6530000    300.62392    441.75422   -24.556419    2.4881792    24.366739 
 6540000    298.34464       272.19   -118.35617    11.992439    24.367422 
 6550000    297.91576    49.906523   -379.54865    38.457767    24.366839 
 6560000    295.54474    32.944276   -191.35835    19.389385    24.368858 
 6570000    302.41079    1137.7556    475.39947   -48.169852    24.376097 
 6580000    298.23438    5.6247749   -79.407288    8.0459435    24.380458 
 6590000    302.81751   -348.23529   -319.89767    32.413632    24.408828 
 6600000    296.26435    498.45003    113.87773   -11.538661     24.40745 
 6610000    301.86009    223.13836   -586.72153    59.449559    24.416134 
 6620000    297.95617   -392.85347      132.234    -13.39861     24.42689 
 6630000    292.24712    -158.9397   -224.83303    22.781206    24.432994 
 6640000    301.68012  -0.45220742    195.62528   -19.821732    24.438388 
 6650000    296.75958    493.70434   -475.24861    48.154565    24.444742 
 6660000     294.8016    170.20905    275.00146   -27.864523    24.452107 
 6670000    296.73808    211.30553   -4.4082558   0.44666652     24.45243 
 6680000    295.30025    67.537492   -523.50353    53.043995    24.451482 
 6690000    298.05103    808.51639   -187.96433    19.045486    24.453728 
 6700000    296.27604    586.25888   -630.24834    63.859913    24.450649 
 6710000    297.20952   -533.70588   -338.93792    34.342885    24.450597 
 6720000    293.40744   -155.06714   -933.31443    94.568085     24.45468 
 6730000    299.45457   -337.97462    389.38727   -39.454665    24.451346 
 6740000     298.8718    173.72611   -258.98612    26.241768     24.43986 
 6750000    298.17616    156.13855    635.96974   -64.439634    24.436229 
 6760000    302.09995    203.98844    -322.5645    32.683848    24.440824 
 6770000    296.30773    518.40669   -577.84965    58.550616    24.444673 
 6780000    299.76562    458.10413    41.393776   -4.1942243    24.452889 
 6790000    296.99321    1531.6719   -603.36649     61.13611    24.459609 
 6800000    298.29049   -695.70722   -210.97288    21.376827    24.466967 
 6810000    300.55971    150.52383    403.20295   -40.854539    24.470723 
 6820000    303.83306    230.71941   -219.18798    22.209222    24.479876 
 6830000    298.10939   -151.48883    464.44339   -47.059726    24.485866 
 6840000     304.3114    674.73967   -891.45779     90.32696    24.488413 
 6850000    295.90252    -660.2632    80.375425   -8.1440399    24.492156 
 6860000    296.32015    -27.44048   -616.19181    62.435635    24.500407 
 6870000    300.41529    765.82357    -234.5059     23.76131    24.496587 
 6880000    300.82986    634.19137   -702.02047    71.132224    24.499983 
 6890000    296.04083    617.89295   -188.91345    19.141656    24.514042 
 6900000    297.63903    288.23905    -121.4879    12.309762    24.515349 
 6910000    296.62028   -888.92368    733.21985   -74.293501     24.51962 
 6920000    297.85138    251.04094   -806.19876    81.688089    24.520841 
 6930000    297.55346   -336.13168    19.859837    -2.012298    24.532889 
 6940000    301.87854   -215.71572   -617.02755    62.520317    24.541622 
 6950000    296.29885    193.83749    -498.0681    50.466751     24.54235 
 6960000    301.38263    630.51436   -596.07669    60.397471    24.544773 
 6970000    293.87133    957.06428   -386.59473    39.171711    24.554995 
 6980000    298.57547   -375.27413   -262.51134    26.598962    24.550225 
 6990000    295.58826    1207.5122    23.332411   -2.3641565    24.544533 
 7000000    296.72909    334.90909   -494.14597    50.069341    24.544681 
 7010000    294.02529   -269.25323    -4.687727   0.47498394    24.541866 
 7020000    294.80685   -110.48709   -1085.9067     110.0295    24.540216 
 7030000     296.2443    60.650442   -286.03778    28.982778    24.527128 
 7040000    300.08435   -313.22655     434.8645   -44.062646    24.507679 
 7050000    291.91149      491.097   -981.63543     99.46421    24.495555 
 7060000    296.73404    279.89178   -658.33493    66.705787    24.488812 
 7070000    294.36362   -165.49292   -645.21422    65.376331    24.487798 
 7080000    299.03974   -404.04969   -464.43761    47.059141    24.492814 
 7090000     295.4839    1336.7833   -178.99012    18.136174    24.491264 
 7100000     296.2231   -18.064827   -152.55754    15.457893    24.493451 
 7110000     296.0737    9.8009993   -425.32066    43.095616     24.48311 
 7120000    301.27917    922.31023   -761.56644     77.16572    24.474606 
 7130000    301.08351   -158.45695    533.01194   -54.007435    24.475008 
 7140000    299.23897    50.060176    82.246642    -8.333641    24.468778 
 7150000     300.0388    666.57184   -829.84723    84.084271    24.467346 
 7160000    294.31943    265.70566    516.76324   -52.361035    24.464002 
 7170000    298.44947   -312.14156    27.045368   -2.7403719    24.464135 
 7180000    300.80377    738.54276    -324.1703    32.846555    24.472413 
 7190000    299.90932    1087.3204     168.2062   -17.043493    24.479848 
 7200000    299.76022    -370.1786   -470.72235    47.695942    24.484895 
 7210000    295.96151   -192.97726   -587.22188    59.500257    24.476312 
 7220000    298.21302    699.55194   -190.18585    19.270581    24.483858 
 7230000    297.08248   -273.40467   -23.665662    2.3979232    24.487035 
 7240000    296.78951    1412.9598    428.33612   -43.401157    24.480533 
 7250000    300.85372    47.630787   -815.56262    82.636882    24.476275 
 7260000    296.78638    230.95797   -231.48234    23.454948    24.471519 
 7270000    298.55753    407.21534     331.2628   -33.565203    24.461444 
 7280000    297.78569    930.74744   -598.60847    60.654003    24.449746 
 7290000    300.72107    329.11478   -97.040407    9.8326192    24.437523 
 7300000    298.62341    34.513857    217.58797   -22.047101    24.435714 
 7310000    296.42175     -105.443    401.34324   -40.666103    24.430644 
 7320000    295.53057    820.74145    -1048.008    106.18941    24.425841 
 7330000    298.71116   -783.59603    -1005.665    101.89901    24.426679 
 7340000    298.38582   -202.94394   -156.48441    15.855783    24.422228 
 7350000    299.23191   -432.05685    109.62861   -11.108119    24.414666 
 7360000    298.44847   -464.06222    823.84618   -83.476214    24.414784 
 7370000     297.2225     207.3314   -122.21654    12.383591    24.410157 
 7380000    301.33007   -443.97372    -237.2204    24.036357    24.410057 
 7390000    299.31079    785.34416    842.86926   -85.403727    24.408272 
 7400000    297.44388   -995.02197    6.1311286   -0.6212366    24.406342 
 7410000    297.44654    663.57152   -567.69774    57.521974    24.408284 
 7420000    294.93555   -918.72852    -244.9206     24.81658     24.40826 
 7430000     299.4769    93.408052      503.465   -51.013591    24.411157 
 7440000    298.99535    562.90687   -1057.7484    107.17636    24.423093 
 7450000     295.9416   -1122.2748    132.92982   -13.469114    24.425679 
 7460000    297.62018   -168.14242   -413.48331    41.896197    24.430007 
 7470000    298.83138   -251.19953    907.88623   -91.991572    24.442507 
 7480000     300.3441    597.64485   -778.90097    78.922141    24.446664 
 7490000    302.88806    639.18385    63.997214   -6.4845177    24.454755 
 7500000     292.5044    206.59101    -624.4179    63.269143    24.460977 
 7510000     299.7405    448.98107    4.8862668  -0.49510099    24.464134 
 7520000    296.32553    634.62607   -922.44036     93.46627    24.463831 
 7530000    296.72986    970.43427   -1453.6392    147.28999    24.470482 
 7540000    297.41046    972.58255    333.79863   -33.822146    24.473532 
 7550000    294.98089   -235.85829   -562.34957     56.98007    24.483995 
 7560000    294.91989    369.22688    313.72676   -31.788364    24.476968 
 7570000    301.06589    1156.8465     227.8681   -23.088735    24.484906 
 7580000    297.21448   -696.79162   -269.41589    27.298565    24.486172 
 7590000    299.16492    643.78554    940.55412   -95.301646    24.484536 
 7600000    302.65988   -424.89034   -785.50472    79.591266    24.489631 
 7610000    295.19984   -367.10097    13.449975   -1.3628187    24.500143 
 7620000    298.36662    773.91508    260.77202   -26.422725    24.510565 
 7630000    296.16638   -718.72485   -908.11321    92.014571    24.518571 
 7640000    298.31454    386.63123   -450.71407    45.668603    24.517061 
 7650000    303.40763   -749.97975     89.90014   -9.1091317    24.523083 
 7660000    298.65846    527.72566   -705.94009     71.52938    24.521749 
 7670000    295.36526    453.82262    123.85171   -12.549275    24.525726 
 7680000    296.69003    -57.33519   -400.30818    40.561227    24.533291 
 7690000    298.65513    109.31326    -845.0347    85.623141    24.530292 
 7700000     299.4521    985.12243   -56.159759    5.6903876     24.53135 
 7710000    299.42645     1357.639   -390.42356    39.559668    24.532622 
 7720000    293.37988    580.46737   -162.48241    16.463531    24.538144 
 7730000    295.87229   -281.05124   -298.39274    30.234644    24.542191 
 7740000    301.34494   -389.59773   -246.92983    25.020165    24.545767 
 7750000    296.83456   -459.13252   -1473.8724    149.34013     24.55238 
 7760000     299.8504    727.33734   -192.23459     19.47817    24.557572 
 7770000    297.80729   -113.95779   -161.80789    16.395184    24.566818 
 7780000    297.20122    54.043234   -508.22233    51.495627    24.572111 
 7790000    299.39022     564.0159   -343.12819    34.767463    24.581737 
 7800000    298.13229   -469.18155   -395.72003    40.096332    24.586823 
 7810000    300.77824    644.72329    -712.9164    72.236254    24.590274 
 7820000    296.58858   -361.31677   -610.32632    61.841314    24.592355 
 7830000    297.12162    696.06868    147.35963   -14.931215    24.600611 
 7840000     299.9722    472.75231    -144.4336    14.634734    24.599771 
 7850000    300.31039   -951.95031   -376.30361    38.128964    24.594795 
 7860000    296.80907    619.13796    363.40356   -36.821866    24.582538 
 7870000    298.45438   -295.03337   -566.69383    57.420253    24.586212 
 7880000    295.44704    411.80087    134.10072   -13.587756    24.587487 
 7890000    295.16471    210.35802    200.90058   -20.356252    24.583939 
 7900000    292.64316    -470.8452   -149.32615    15.130472    24.583735 
 7910000    296.09153   -990.18361    288.79524   -29.262177    24.574906 
 7920000    296.85955    268.95663   -408.98663    41.440571    24.572627 
 7930000     297.4151   -386.22816   -11.442512    1.1594125    24.567565 
 7940000    295.82633   -688.02141    92.961456   -9.4193196    24.564302 
 7950000    296.34613    458.39916    61.942738   -6.2763479    24.560144 
 7960000    300.31645   -162.15642   -25.202713    2.5536649    24.555573 
 7970000    299.47806    482.00489    143.41967   -14.531998    24.548756 
 7980000    297.05334   -856.88318    121.34556   -12.295339    24.543695 
 7990000    297.61595     691.5302   -61.205504    6.2016477    24.539794 
 8000000    298.30504   -366.11154   -713.35662    72.280859     24.53302 
 8010000    299.82067    683.94917     -529.918    53.693941    24.525062 
 8020000    300.17601    414.38246   -681.09947    69.012403     24.52131 
 8030000    293.45175    1025.2028   -496.85171      50.3435    24.515641 
 8040000    297.26909    906.46322    -256.4697    25.986792    24.512115 
 8050000    300.41339    706.45276   -196.87436    19.948294    24.504222 
 8060000    303.74821    390.07017    443.69775   -44.957675    24.494519 
 8070000    297.61371   -212.79259    304.59558   -30.863147    24.480088 
 8080000    300.22695   -149.70036   -88.968654    9.0147489    24.465471 
 8090000    296.82648    -922.3131    186.73447    -18.92087    24.450675 
 8100000    298.61471    245.49388    568.43821   -57.597001    24.431717 
 8110000    299.46833    781.82626    561.09211   -56.852658    24.419364 
 8120000    298.47826   -377.15337   -279.38897    28.309088     24.40743 
 8130000    297.92178   -740.06693   -541.87903    54.905893    24.399013 
 8140000    299.78142    506.70871    303.74321   -30.776781    24.388753 
 8150000    297.03044    225.91603    -354.8307     35.95322    24.376217 
 8160000    301.03086    117.87915   -786.96367    79.739094    24.362897 
 8170000    302.33782    731.54188    231.32626   -23.439133    24.340902 
 8180000    294.23385   -471.82296   -539.42743    54.657485    24.328977 
 8190000    297.03183   -389.42458    235.13932   -23.825492    24.317676 
 8200000    299.76728   -228.39551   -742.73531    75.257655    24.306809 
 8210000    300.45524    768.87377   -310.85264    31.497144    24.297195 
 8220000    293.24005    581.42644   -334.73535     33.91706    24.290028 
 8230000    296.59935    368.01715   -989.30671     100.2415    24.288897 
 8240000    299.43895   -174.31988   -182.85313    18.527593    24.283994 
 8250000     299.0763    528.82192    112.08157   -11.356665    24.280434 
 8260000    299.25652   -258.69363   -94.573746    9.5826848    24.277646 
 8270000     297.9868   -447.50888    425.35178   -43.098769    24.281668 
 8280000     291.6465    139.30613   -461.55505    46.767066    24.292453 
 8290000    300.14568    398.85991    517.55931   -52.441697    24.292934 
 8300000    298.68439    160.47409   -1035.7765    104.95006    24.294487 
 8310000    295.39453     78.61677   -201.98961    20.466597    24.290807 
 8320000    299.37046    506.16635    920.62997   -93.282831    24.282647 
 8330000    298.44904   -109.54596   -537.07462    54.419086    24.274164 
 8340000    299.76728   -55.902376    381.05287   -38.610182    24.265867 
 8350000    298.92435   -132.92268   -134.78276    13.656863    24.271687 
 8360000    293.56206   -465.79914   -255.97048    25.936209    24.276034 
 8370000    296.11364    1058.3339   -604.30643    61.231349    24.272823 
 8380000    297.02151   -769.87044   -740.25177     75.00601    24.267997 
 8390000    300.49406    335.91505   -973.79636    98.669916    24.264352 
 8400000    297.30578    193.04024   -303.53783     30.75597    24.262694 
 8410000    298.81986    83.616088   -1220.8572    123.70335    24.265623 
 8420000    297.31736   -715.31714    -924.6272    93.687851    24.258222 
 8430000    300.18913    312.57345    289.30968   -29.314303    24.250303 
 8440000    298.99882    399.92327    91.321098   -9.2531103    24.246274 
 8450000    297.13596   -956.22301    404.61188   -40.997298    24.236841 
 8460000    297.56129    297.77907     475.3477   -48.164606    24.228283 
 8470000    299.59805   -533.83232   -193.12852    19.568747    24.223796 
 8480000    299.00087   -653.97228    367.61441    -37.24853    24.222035 
 8490000    303.29498    1034.5647   -15.927215    1.6138251    24.220648 
 8500000    300.30472   -321.16186    2.1971082  -0.22262199    24.219656 
 8510000     292.1761     45.14532   -848.63529    85.987971    24.221227 
 8520000    301.27824    296.92857   -1040.0149    105.37951    24.228619 
 8530000    298.15869    323.07135   -1031.1699    104.48329    24.227764 
 8540000    297.35191   -3.0944548   -965.80035    97.859721    24.227564 
 8550000    298.83576    165.72829    479.19412   -48.554345    24.226017 
 8560000    294.72416   -818.17682   -742.53992    75.237858     24.23224 
 8570000    301.08574   -393.06775    1.9445794  -0.19703451    24.233826 
 8580000    300.76582    508.51098   -206.44345    20.917882    24.244131 
 8590000    296.83185   -515.04332   -488.48135    49.495373    24.248583 
 8600000    296.93608    619.17638    35.949126   -3.6425452    24.254322 
 8610000    298.95561   -242.78878    358.81168   -36.356593    24.263074 
 8620000    298.92263    877.26258    -566.4017    57.390652    24.270332 
 8630000    297.74937   -106.86495   -758.49458    76.854463    24.279127 
 8640000    296.77472     -346.004   -1211.7952    122.78515    24.278181 
 8650000    302.89438    81.808762   -730.08468     73.97583     24.27621 
 8660000    299.43691   -607.94199   -396.98729    40.224737    24.273211 
 8670000    295.36488    92.328343   -492.37354    49.889749    24.268214 
 8680000    299.87275    -169.6623    -455.8238    46.186347    24.269935 
 8690000    300.54233    1258.7273   -439.03133    44.484849    24.263563 
 8700000     298.7371    163.04577   -471.71697    47.796722    24.256151 
 8710000    296.70768   -602.58898   -878.26185    88.989882    24.251716 
 8720000    297.78902   -977.49009     207.1553    -20.99001    24.244381 
 8730000     298.4831   -41.739544   -1293.0697    131.02029    24.242362 
 8740000     298.3686   -338.97531    722.40016   -73.197196    24.240468 
 8750000    298.43192   -172.81383    183.55776    -18.59899    24.235876 
 8760000    298.88701    521.38859    390.80631   -39.598449    24.232562 
 8770000    297.67506   -971.54275    -265.0722    26.858441    24.222461 
 8780000     297.7731    373.58016     189.7828   -19.229742     24.21451 
 8790000    300.96562    316.29298    936.57096   -94.898052    24.209067 
 8800000    298.37373    -28.56919   -884.91111    89.663618    24.207992 
 8810000    299.28554    674.12589    418.88509   -42.443531    24.201808 
 8820000    300.10716     945.5081   -309.05331    31.314827    24.198481 
 8830000    296.57021    503.79738    411.52301   -41.697569    24.200925 
 8840000    297.96611   -985.24747   -1381.9084    140.02187    24.208068 
 8850000    295.19509   -686.11116    306.81731   -31.088264    24.212014 
 8860000    298.34474   -764.01765   -174.89973    17.721715    24.206008 
 8870000    301.18978    792.45511   -421.96058    42.755156    24.207608 
 8880000    299.57301   -152.13814   -376.58924    38.157905    24.204108 
 8890000    295.12802    354.82989    562.86107   -57.031898    24.199841 
 8900000    293.95317    191.14417   -1044.9956    105.88418    24.200476 
 8910000    299.34683   -566.59072    390.68779    -39.58644     24.19209 
 8920000    299.43611    783.86317   -392.19177    39.738831    24.191618 
 8930000    300.86388      342.897    391.20756   -39.639106     24.19299 
 8940000    296.16598    1237.7965   -204.58932    20.730013    24.191401 
 8950000    300.05585    268.16608   -76.476868    7.7490186    24.197227 
 8960000    298.33881   -179.00014   -41.987312    4.2543644    24.202074 
 8970000    297.52677    500.00221   -970.10485    98.295874    24.205378 
 8980000    296.37768   -302.27318   -391.81777    39.700936     24.21397 
 8990000    297.93017   -454.71505    -69.04544    6.9960292    24.219411 
 9000000    302.55876   -205.79492   -93.041043    9.4273837    24.221678 
 9010000    300.79213   -576.49364    808.69201   -81.940718    24.223292 
 9020000    301.03722   -181.12177   -7.0235036   0.71165651    24.221553 
 9030000    298.44615   -174.62723     385.5344   -39.064273    24.219466 
 9040000     301.9668    199.91341    177.76233   -18.011768    24.209411 
 9050000    295.66585   -399.15222   -263.24564    26.673364    24.206244 
 9060000    299.32417    1307.6677   -298.55651    30.251239    24.200789 
 9070000    297.17219    121.81402    205.45201   -20.817425    24.194607 
 9080000    295.46816    325.30545    132.11371   -13.386421    24.187031 
 9090000    299.54581   -198.74503    457.25162    -46.33102    24.183514 
 9100000    299.87611    993.07433    659.20421   -66.793867    24.176811 
 9110000     301.0123   -101.99106    149.94562    -15.19324    24.168285 
 9120000    296.14119   -99.481901   -16.077955    1.6290988    24.161589 
 9130000    295.45079    225.84805   -270.01589     27.35936    24.153785 
 9140000    297.87308    207.09316    78.765953   -7.9809602    24.153337 
 9150000    299.61257     502.9116   -492.18577    49.870723    24.152274 
 9160000    298.12458    803.63589    278.72925   -28.242241    24.148199 
 9170000    298.21369     474.3393   -335.43999    33.988457    24.149539 
 9180000     295.8108   -410.10598   -407.03821    41.243147    24.154961 
 9190000    298.85732   -595.11116   -334.48906    33.892104     24.15869 
 9200000    300.30587   -201.58052     161.8602   -16.400485    24.157178 
 9210000     301.7938    251.37577   -601.21342     60.91795     24.15777 
 9220000    301.48661   -558.28621    201.01963   -20.368314    24.162563 
 9230000    299.47539   -574.89159   -743.87038    75.372666    24.162264 
 9240000    297.90414   -600.81262   -564.39599    57.187424    24.161754 
 9250000    295.73455   -916.43191   -1038.9328    105.26987    24.158935 
 9260000    296.47477    437.85506    259.34466   -26.278097    24.163008 
 9270000    299.35962    41.409521   -378.83408    38.385363    24.163903 
 9280000    297.71939   -534.72292   -228.37605    23.140203    24.173842 
 9290000    303.40387    533.41322   -96.800126    9.8082727    24.178327 
 9300000     299.6733    113.28095   -303.08928    30.710522    24.188261 
 9310000     293.7426   -553.54557   -588.90291    59.670587    24.195247 
 9320000    295.69344   -1157.5382   -498.50762    50.511285    24.197196 
 9330000    300.29196    212.36831   -315.50323    31.968365    24.198007 
 9340000    296.96141   -421.27408    42.485261   -4.3048191    24.206513 
 9350000    297.38112   -396.83141   -272.22791    27.583493    24.207079 
 9360000    296.40997    71.577637    694.55789   -70.376078    24.205857 
 9370000    302.07172    1322.5844    -1362.923    138.09818     24.21699 
 9380000    300.42465    363.34559   -477.77952     48.41101    24.229405 
 9390000    301.96043    394.99906   -763.78104    77.390114    24.240189 
 9400000    298.38304     141.7747   -800.90421    81.151619    24.247016 
 9410000    298.94536   -1189.4964   -495.31911    50.188209    24.250547 
 9420000    298.10291    106.62085   -516.60454    52.344955    24.255244 
 9430000    302.96762    143.52439   -564.40066    57.187897    24.269718 
 9440000    295.13251     132.4058    -301.4493    30.544351    24.273857 
 9450000    297.28944    33.130801   -144.98349    14.690452    24.280302 
 9460000    295.48195    -586.1052   -804.52128    81.518119    24.279295 
 9470000    297.56246    357.15788   -317.35924    32.156425    24.271611 
 9480000    295.55301    -1233.651    -615.6132    62.377007    24.262899 
 9490000    296.69333    491.67525   -233.60702    23.670231    24.259648 
 9500000    298.95987   -1.6495197    -473.2276    47.949787    24.260148 
 9510000    296.00378    465.42735    507.62169   -51.434768    24.262533 
 9520000    300.38364   -244.49129   -1814.5158    183.85581    24.267869 
 9530000    297.80003   -692.44102   -176.10551     17.84389    24.272499 
 9540000      296.169    661.72114    -531.3862    53.842706    24.279661 
 9550000    297.73785     242.5962   -591.49071    59.932796    24.289189 
 9560000    294.36404   -157.40118    -313.1006    31.724918    24.294242 
 9570000    296.65513   -65.269007    25.347013   -2.5682861    24.298501 
 9580000    295.07613    457.43324   -1098.6241    111.31809    24.296329 
 9590000    297.84439   -13.111447   -42.745087    4.3311459    24.289376 
 9600000    292.91411     976.2418   -233.41235    23.650506    24.289994 
 9610000    296.19942    80.723548   -887.52577    89.928548    24.294563 
 9620000    299.08839   -188.79433   -406.37148     41.17559    24.289156 
 9630000     297.7392    21.169607    17.904024   -1.8141252     24.28338 
 9640000    300.41597   -281.36675   -363.75189     36.85716    24.281201 
 9650000    296.83493    883.18608   -1023.7502    103.73149    24.276143 
 9660000     299.4435    439.31064    697.68377   -70.692808    24.280113 
 9670000    300.94962    378.81083   -23.846921    2.4162893    24.275145 
 9680000     295.5628    45.691324     78.62344     -7.96652    24.276569 
 9690000    299.31236    223.80262    466.23165   -47.240922    24.276698 
 9700000     297.1165    167.69318   -365.20121    37.004012     24.27691 
 9710000    299.75884   -148.11467    34.239993   -3.4693673    24.261381 
 9720000    294.69678   -661.36557   -529.69359    53.671203    24.261268 
 9730000    299.00888   -179.36411     759.0812   -76.913902    24.263154 
 9740000    298.43104   -687.61661    103.93183   -10.530892    24.257309 
 9750000    299.82156    -436.7052   -204.32051    20.702776    24.258449 
 9760000    297.29202   -737.97318   -68.305303    6.9210348    24.260064 
 9770000    294.44615     222.7873   -125.11567    12.677345    24.256004 
 9780000     300.0855    60.589629   -375.06061    38.003017    24.254932 
 9790000    298.39322    334.42676    301.00693   -30.499528    24.252907 
 9800000    298.31675     456.6903   -396.84961    40.210786    24.244528 
 9810000    295.32171    -634.6512   -194.29874     19.68732    24.240433 
 9820000     296.6429    688.16667    245.18003   -24.842866     24.24268 
 9830000    296.51476    53.681453     672.2644    -68.11719    24.241648 
 9840000    295.56064   -167.20169    636.56942   -64.500396    24.239087 
 9850000    298.24327   -187.86487   -663.71953    67.251381    24.235896 
 9860000    296.73683   -29.304252   -190.21673     19.27371    24.235466 
 9870000    297.82033    207.45678   -790.37854    80.085106    24.233204 
 9880000     298.7893   -453.95036    735.69352   -74.544146    24.221839 
 9890000    295.97545    163.30212      -289.12    29.295084    24.217372 
 9900000    300.42166   -220.38281     340.3494   -34.485903    24.216735 
 9910000    294.34108   -494.21522    161.08013   -16.321444    24.219673 
 9920000     294.8597    -1002.782    253.05209   -25.640503     24.21948 
 9930000    295.53227   -68.084396   -81.997196    8.3083658    24.214091 
 9940000     296.4096   -769.63663    -253.7951    25.715789    24.214302 
 9950000    297.77576   -791.20139   -392.37513     39.75741    24.215207 
 9960000     298.4331   -490.83181     343.8666   -34.842283    24.216391 
 9970000    298.52625   -269.08604      152.346   -15.436459    24.213299 
 9980000     298.4463    130.53746   -417.53002    42.306229    24.200569 
 9990000    297.07399   -105.02612   -617.20673    62.538472    24.193202 
10000000    295.15372   -147.71617   -240.00336     24.31834    24.183516 
10010000    297.14413    248.85071   -1247.3791    126.39069    24.174461 
10020000    295.42771     237.5476   -239.42675    24.259915    24.164696 
10030000     300.8098    533.40153    89.878994    -9.106989    24.158282 
10040000    299.87015   -124.39485    128.25894   -12.995837    24.155677 
10050000    298.80534   -502.13733    -315.4163    31.959556    24.155672 
10060000    298.50837    293.89997    795.65122   -80.619359    24.152426 
10070000    296.73931    314.38597    744.71012   -75.457753    24.151765 
10080000    298.55958    1142.6326    452.44147   -45.843632    24.152156 
10090000    300.65212   -1077.8285   -121.26369    12.287044    24.159038 
10100000    295.40159    830.14819   -607.53356    61.558338     24.16398 
10110000    296.40348   -710.09639   -330.24656    33.462232    24.168553 
10120000    293.02052    175.39424    5.0009339  -0.50671962    24.172155 
10130000    295.30971    211.27096   -229.95088    23.299773    24.172304 
10140000    301.62429   -713.63237   -1051.2858    106.52153    24.168996 
10150000    300.15793    503.57244   -210.40982    21.319775    24.167744 
10160000    296.29793    160.50974    76.453812   -7.7466825    24.162251 
10170000    295.62245    213.68838   -190.32359    19.284538    24.149324 
10180000    295.46894    234.11242    98.976371   -10.028781    24.143104 
10190000    295.84607    -168.1704    374.64419   -37.960823    24.137263 
10200000    299.25075   -687.32438    -279.7647    28.347159     24.13467 
10210000    301.46489     353.5769     213.7029   -21.653446    24.131408 
10220000    296.71236   -1.7474055   -107.30012    10.872184    24.125664 
10230000    300.66083   -276.63668    -242.9638    24.618307    24.123439 
10240000    294.77851   -948.08653   -77.037941    7.8058694    24.128986 
10250000    294.94978   -254.76263   -215.07687    21.792664    24.131364 
10260000    299.16263    309.61979   -123.87141     12.55127    24.123186 
10270000    297.54074   -93.742338    228.76477    -23.17959    24.121824 
10280000    300.47196    -595.3769   -828.09882    83.907113    24.121752 
10290000    299.95153   -407.05171   -601.80814     60.97821    24.122713 
10300000    301.65171    140.70444    105.59331   -10.699243    24.129467 
10310000    297.17213   -331.59419   -400.21693     40.55198    24.128321 
10320000    298.22786     601.5067   -370.09736    37.500115    24.124924 
10330000    298.56682    531.63767   -725.07528    73.468253    24.125025 
10340000    299.56794   -1030.6769    342.89742   -34.744081    24.126454 
10350000    300.52367   -12.326834   -540.07178    54.722773    24.125818 
10360000    299.62553   -34.605856   -26.891895    2.7248213    24.115425 
10370000    298.43706     105.8106    349.44809   -35.407828    24.108288 
10380000    299.70542    -456.9294    167.53144   -16.975123    24.103575 
10390000    300.70584   -377.26631   -920.07003    93.226096    24.099964 
10400000    296.40074    156.92901   -630.69706     63.90538    24.099837 
10410000    299.90954    580.93728   -124.06355    12.570739    24.096349 
10420000    298.97146     162.4496   -302.39201     30.63987     24.09976 
10430000    301.55691   -285.83274    220.92086   -22.384806    24.105954 
10440000    299.22481    99.187675   -479.63245    48.598758    24.110927 
10450000    293.75357    486.78132   -1144.2573    115.94187    24.111644 
10460000    298.92319    1068.8324   -133.03775     13.48005    24.109765 
10470000    296.45379   -64.589885   -1280.2806    129.72443    24.101706 
10480000    301.63488    -28.72951   -356.85258    36.158088    24.102059 
10490000       300.97   -336.50338    -190.5604    19.308532    24.101261 
10500000    296.77651   -301.48849   -106.27354    10.768166    24.102329 
10510000    299.07429     1536.023   -111.26409    11.273834    24.103179 
10520000     294.6908   -196.99636    -81.76372     8.284709    24.096381 
10530000      298.448    308.55297    580.46074   -58.815185     24.08612 
10540000    296.68451   -179.35977    447.83415   -45.376796    24.078567 
10550000    298.52225    83.283215   -148.68225    15.065229    24.072244 
10560000    300.46897    415.49374   -546.27895    55.351715    24.067766 
10570000    295.17941    866.26264    308.75217   -31.284314     24.05739 
10580000    299.48626    96.125856   -918.52428    93.069473    24.051094 
10590000    301.62201    368.86036    190.34007   -19.286208    24.040513 
10600000    300.49269    781.74457    275.26319   -27.891043    24.033185 
10610000    297.55162   -350.32549    375.37174   -38.034541    24.024234 
10620000    292.67298    694.63855   -164.40549    16.658386    24.019645 
10630000    296.11097    108.75146   -794.07189    80.459335    24.020505 
10640000    298.91298     -665.019   -621.72238     62.99602    24.016239 
10650000    303.44491    -1091.224   -179.97113    18.235575     24.01837 
10660000    294.86602    626.58954    458.43019   -46.450439    24.018712 
10670000     295.6072     354.6573    7.7703375  -0.78732945    24.014027 
10680000    301.69841   -239.73325   -401.96603    40.729208    24.011586 
10690000    298.36594   -459.71418   -473.82256    48.010071    24.010853 
10700000     301.0333    194.95237    234.53553   -23.764312    24.009088 
10710000     301.6393   -188.82808    125.57136   -12.723518    24.006888 
10720000    299.81692    796.83212   -703.69252    71.301645    24.006109 
10730000    299.43837   -337.67503    412.63871   -41.810617    24.004655 
10740000    297.29665   -487.16139    841.67273   -85.282489    24.001584 
10750000    298.21697   -184.32732    409.32148   -41.474499    24.000685 
10760000    299.51639      161.293    60.567659    -6.137018    24.001554 
10770000    297.46833   -64.791381    -445.3527    45.125363    24.004654 
10780000    296.26687   -396.75562   -850.42487      86.1693    24.002206 
10790000    299.07826    221.69365    -96.72311    9.8004691    24.002604 
10800000    296.11896   -140.43774   -513.17983    51.997946    24.002914 
10810000    297.00916   -700.57475   -383.46177    38.854264    24.000119 
10820000    295.33597   -601.88969   -745.51858     75.53967    23.994756 
10830000    299.54231    200.80609   -1224.6126    124.08387    23.991892 
10840000    298.37617    340.32768   -356.79804    36.152561    23.992514 
10850000    294.16795    396.59636   -742.36354    75.219986    23.990803 
10860000     300.9624   -151.66197   -240.05746    24.323822     23.99294 
10870000    300.31085   -12.037256    700.69332   -70.997751    23.998927 
10880000    300.37421    1108.3459   -306.14395    31.020036     24.00295 
10890000    297.96557      409.531   -148.93613    15.090953    24.001548 
10900000    298.93624    -604.5108   -485.29578    49.172595    24.007688 
10910000    295.57394    13.768234   -282.79365    28.654066    24.008784 
10920000    300.37841    145.13225    -497.9488    50.454662    24.005638 
10930000    303.17444   -138.51335   -32.952007    3.3388621    24.004444 
10940000    298.54657    141.65508   -1026.4573    104.00578    24.002166 
10950000    295.88241    333.43445   -341.11463     34.56344    24.001815 
10960000    295.61609    224.46738   -1041.8688    105.56735     24.00071 
10970000     296.6398   -329.28089   -1228.1267    124.43994    23.994306 
10980000    294.52514    187.91515    408.52261   -41.393554    23.997471 
10990000    297.08427    -129.5289    496.77945   -50.336178     23.99576 
11000000    298.12385   -1133.2824   -1164.6816    118.01137    23.991815 
11010000    299.10799   -1039.5112   -674.12819    68.306038    23.990622 
11020000    298.74461    321.30608    119.42988   -12.101233    23.986656 
11030000    299.69012    33.181225   -1127.4092    114.23474    23.986136 
11040000    295.45031    352.62461   -93.550347     9.478989    23.989331 
11050000    298.37126   -708.03472   -439.52964    44.535341    23.993115 
11060000    304.10508    270.77516    182.76736   -18.518903    23.991568 
11070000     296.9507   -774.14546    506.64185   -51.335485     23.98847 
11080000    300.62314    634.90956   -260.87695    26.433357    23.988549 
11090000    298.81046    700.66322   -149.60306     15.15853    23.993628 
11100000     301.8453   -644.83456   -147.01322    14.896115    23.997311 
11110000    298.71649     64.77449   -435.91339    44.168924    23.998066 
11120000    298.24838    872.55023   -1360.4207    137.84462    24.000386 
11130000    297.07845    488.97649    506.02559   -51.273043    24.001305 
11140000    296.37069    356.54046   -99.084631     10.03975    24.003827 
11150000    297.69568    1306.9112     76.82355   -7.7841462    24.007809 
11160000    300.60903    37.922939    55.024764   -5.5753843    24.005013 
11170000     298.3956    368.82384   -704.25477    71.358615    24.004032 
11180000    301.51699   -46.929363    144.96386   -14.688463     24.00539 
11190000    296.12111    1112.0372   -108.82288    11.026478    23.996847 
11200000    303.53056    463.01416   -195.71344    19.830664    23.990623 
11210000    300.13449   -505.19444   -195.55391      19.8145    23.982667 
11220000    296.02227     138.2283   -954.06013    96.670142    23.978463 
11230000    298.93687    523.68853    326.75398   -33.108347    23.977856 
11240000    299.77208     718.1866   -246.83652    25.010711    23.976281 
11250000    297.84747    770.27654   -251.32947    25.465959    23.975005 
11260000    297.70524    41.330435    46.362796   -4.6977103     23.97459 
11270000    297.37674    948.01531   -568.63397    57.616837     23.97957 
11280000    296.97518   -23.798185    -701.4975    71.079234    23.983585 
11290000    296.85145   -319.54926   -1443.8955    146.30271    23.985552 
11300000    299.32468   -607.74976   -532.33198    53.938538    23.986062 
11310000    298.41267     72.10401   -424.47397    43.009825    23.984312 
11320000    300.63575    722.71474   -80.688715    8.1757841    23.985387 
11330000    299.04658    153.09831   -927.99097    94.028685    23.985136 
11340000    301.39795    787.39962   -611.47506     61.95771    23.980746 
11350000    299.37097   -130.86931   -356.97906    36.170903    23.979057 
11360000     300.5018   -513.69444   -535.56962    54.266592      23.9812 
11370000    297.58916     756.4605    229.84936   -23.289487    23.978279 
11380000     297.1439   -797.18093   -278.33695    28.202491    23.975561 
11390000    295.80768   -502.89468    177.37694   -17.972719    23.977578 
11400000    296.71109    204.70003   -429.05787    43.474289    23.981238 
11410000    300.34916   -79.359082   -440.12957    44.596128    23.985649 
11420000      296.465    276.90688   -571.56817    57.914144    23.983154 
11430000    296.61889   -631.32248   -864.29888    87.575085    23.983227 
11440000    298.88064   -8.4064041    885.08923   -89.681666    23.979847 
11450000    297.05098    349.07645   -847.21736    85.844299    23.979418 
11460000    297.23731    429.50401   -427.80451    43.347292     23.98327 
11470000    299.56374    410.92343    517.93027   -52.479285    23.992792 
11480000    297.37225    73.698015   -434.31613    44.007082     23.99721 
11490000     298.5568    111.03124   -548.52087    55.578877    24.001268 
11500000    295.81195    77.393279   -1591.2313    161.23152    24.003638 
11510000    299.16084   0.60786985   -308.86389    31.295633    24.008013 
11520000     297.1618    15.439182   -233.24026     23.63307    24.008828 
11530000     297.4844    651.77824   -844.02827    85.521165    24.017754 
11540000    299.96685    847.95325   -655.69709    66.438508    24.024401 
11550000    299.01027    339.41877   -305.53058    30.957886    24.025043 
11560000    296.84773    81.594082   -147.90483    14.986457    24.029267 
11570000    301.12214    186.89168    216.01965   -21.888191    24.029577 
11580000    302.73222   -336.12719   -454.53255     46.05551    24.032835 
11590000    300.20647    268.03654    412.10326   -41.756363    24.039793 
11600000    297.10483   -840.14146   -270.01541    27.359311    24.043317 
11610000    297.71666    523.70263   -288.41168    29.223313    24.045665 
11620000    299.98398   -714.47266    207.64098   -21.039222    24.053691 
11630000    299.56226    111.40847    -78.42243    7.9461527    24.052198 
11640000    297.89731    3.5830677   -194.42678    19.700293    24.059751 
11650000    298.73597    325.97964    11.737027   -1.1892543    24.068329 
11660000    301.79532    -542.0228    529.92894    -53.69505    24.075961 
11670000    297.28706    582.95073    206.17868   -20.891055    24.079503 
11680000     293.9789   -658.72963   -455.81338     46.18529    24.082968 
11690000    298.31373    -970.8667    123.27389   -12.490727    24.093495 
11700000    294.64627   -687.33279   -588.11797    59.591053    24.104011 
11710000    298.89725    -3.313172   -371.92926    37.685733     24.10493 
11720000    299.24476    22.257826   -730.77223    74.045496    24.110061 
11730000    297.02314   -731.43283   -724.06405     73.36579    24.119828 
11740000    294.08762    335.88507   -237.79342    24.094418    24.125014 
11750000    296.66308   -378.70724    314.51376   -31.868107    24.129672 
11760000    300.45638   -651.37117   -392.59984    39.780179    24.137517 
11770000    297.18059   -787.53061    255.45815   -25.884297    24.147985 
11780000    297.91974   -351.74296   -637.16178    64.560418    24.158544 
11790000    297.65393     211.5097   -405.13258    41.050059    24.168087 
11800000    300.84556    120.92489    39.155801   -3.9674615    24.174528 
11810000    298.96012   -378.21912    298.10596   -30.205586     24.18288 
11820000    294.61914   -97.568408    46.480898    -4.709677    24.184821 
11830000    297.70568    275.54471   -239.25804    24.242821    24.191311 
11840000    297.18274    -913.2509    69.602133   -7.0524361    24.203487 
11850000    297.00307   -1006.0978   -588.03488    59.582635    24.209971 
11860000    298.26174    362.84259    18.627439   -1.8874253     24.21555 
11870000    298.11977   -343.19758    89.336532   -9.0520241    24.224504 
11880000    297.83296   -43.319482   -163.86742    16.603866    24.225197 
11890000    296.60192   -169.89952   -48.103647     4.874102    24.228295 
11900000    298.55368    41.832303   -548.50917    55.577692    24.226135 
11910000    294.27102   -12.135123   -263.56229    26.705449    24.229067 
11920000    296.38344   -552.21301    631.70048   -64.007051    24.225546 
11930000    298.04295   -1561.3358   -411.35047    41.680087    24.224146 
11940000    298.10407     888.8113    1074.8831   -108.91253    24.233668 
11950000    301.06811    548.80629   -234.46573     23.75724    24.231569 
11960000    296.92283    1265.7886    66.839485   -6.7725108    24.233776 
11970000    293.81055   -685.51104   -1332.0217     134.9671      24.2317 
11980000    294.97088   -78.049478   -696.07855     70.53016    24.233313 
11990000    298.41436   -237.29435    149.21298   -15.119006    24.236331 
12000000    296.34264   -547.48315   -298.36612    30.231947    24.237859 
12010000    301.78069    1544.9842    81.118498   -8.2193318    24.239962 
12020000     298.3485    246.61598   -350.05566     35.46939    24.245514 
12030000    299.96137    445.64243    335.85046   -34.030048    24.249101 
12040000    301.87516   -248.14175   -410.24448    41.568022    24.255141 
12050000    299.53728   -185.61286   -309.11432    31.321009    24.257149 
12060000    301.40714    341.36537   -969.84185    98.269225      24.2614 
12070000    292.38103    1265.0425   -267.84596    27.139492    24.266364 
12080000    293.28585    390.75292    480.25705   -48.662046    24.272601 
12090000    297.59302    1038.9631   -7.5531704   0.76532499    24.279065 
12100000    300.63601   -244.39302    42.383553   -4.2945135    24.282041 
12110000    295.83582   -857.30598   -293.33073    29.721736    24.286359 
12120000    297.45843    -104.8704   -475.31679    48.161473    24.283825 
12130000    298.61786    296.74778    740.51163   -75.032341    24.278396 
12140000    298.12181    696.48457   -61.378749    6.2192017    24.272149 
12150000    297.05016   -161.16073    376.38586   -38.137298    24.275793 
12160000    298.14182    811.52887   -519.86543    52.675365    24.272468 
12170000    300.49283    155.32854     -1094.24    110.87387    24.268109 
12180000    297.69831    767.81894    249.01645   -25.231591    24.264438 
12190000    298.67537   -73.874321    409.34408   -41.476789    24.254464 
12200000    298.94572     692.8209   -29.843436    3.0238861    24.245337 
12210000    293.96562   -634.96123    -155.4839    15.754406    24.237691 
12220000    296.88841    390.79617    144.02083   -14.592911    24.230711 
12230000    293.39232    653.71237   -53.027064    5.3729673    24.225333 
12240000     297.7584    713.52909   -145.63737    14.756706    24.220977 
12250000    299.68039    419.42654    505.52213    -51.22203    24.217823 
12260000    297.33902    695.62679   -28.507067    2.8884786    24.213101 
12270000    295.97892     184.2527    989.24721   -100.23547    24.207019 
12280000    294.73404   -961.03452   -45.770326    4.6376782    24.203381 
12290000    296.76935   -1250.8835   -24.463941    2.4788088    24.197213 
12300000    297.33869    42.507807   -252.17896    25.552033    24.193873 
12310000    300.93894    500.00626    -267.2482    27.078924    24.188541 
12320000    297.93138    350.92022    282.55313   -28.629696    24.184712 
12330000    294.50058   -383.20224   -301.25369    30.524531    24.183276 
12340000     299.0448   -525.80818   -119.03041    12.060756    24.178663 
12350000    297.34381   -178.90308    363.13471   -36.794625     24.17897 
12360000    299.79487    159.02995    -302.5112    30.651947    24.175705 
12370000    296.51252   -314.72665   -139.68866    14.153954    24.171023 
12380000    292.76827     453.2492   -735.94282    74.569407    24.166066 
12390000    299.64476       596.41   -192.43246    19.498219    24.160812 
12400000    295.87228   -166.69885    402.13212   -40.746037    24.159791 
12410000    298.58068   -387.54033   -758.22291    76.826937    24.158729 
12420000    294.71403   -405.18431    655.59232   -66.427892    24.153235 
12430000    299.42838   -52.515667   -280.27005    28.398363    24.152603 
12440000    296.26802    278.54028    284.39338   -28.816159    24.154352 
12450000     302.7772    -34.00256   -1104.7354    111.93731    24.157094 
12460000    295.92769    423.76622   -22.089464    2.2382149    24.161505 
12470000    297.90257     217.4082   -479.98259    48.634235    24.160184 
12480000    298.03656   -790.35623   -42.485194    4.3048123    24.157334 
12490000    299.04926     150.0191   -941.24424    95.371572    24.148324 
12500000    297.70745    4.3516326    495.42823   -50.199266    24.147587 
12510000    300.00003    508.68365   -190.22213    19.274257    24.146128 
12520000    296.64114   -82.736099    455.74188   -46.178046    24.147969 
12530000     295.4974   -242.99415   -108.39487     10.98311    24.139197 
12540000    298.15735   -160.54058    19.166226   -1.9420179    24.136566 
12550000    295.78304   -84.636453    217.91091   -22.079823     24.13447 
12560000    295.95656    -822.8184    541.10323   -54.827285    24.127114 
12570000     299.5808     555.7392    257.54058     -26.0953    24.123103 
12580000    297.21803    337.11948    74.066313   -7.5047691     24.11991 
12590000    297.51368   -561.35658   -113.42661    11.492951    24.124206 
12600000    296.32726   -1307.4123    558.63127   -56.603313    24.121182 
12610000    297.87464    3.4372644   -386.60148    39.172395    24.119118 
12620000    297.43512     373.9064   -342.20464    34.673885    24.116397 
12630000    296.55084    376.02006   -178.90241    18.127286    24.114591 
12640000    294.97151   -1196.2193    120.02558   -12.161592    24.115344 
12650000    302.04637    518.00963   -714.81601    72.428732     24.11652 
12660000    299.66232   -551.50454   -552.60063    55.992259    24.113404 
12670000    301.90092    276.19855   -700.75639    71.004141    24.109289 
12680000    294.68558    323.41368   -232.72856    23.581221    24.105617 
12690000    295.36813   -478.57624   -430.19194    43.589198    24.104504 
12700000     296.4214   -426.02574    1433.7613   -145.27587    24.101222 
12710000    302.55742   -188.14264   -13.610938    1.3791283    24.095754 
12720000    302.37712   -803.56784      403.294   -40.863764    24.092211 
12730000    296.29276    267.29924   -232.07185    23.514681    24.089577 
12740000    300.38354    1016.1149    251.85385   -25.519091    24.089068 
12750000    300.39568    320.38121   -386.57236    39.169444     24.08503 
12760000    302.93154    211.48586    -307.9447    31.202496    24.085508 
12770000     300.8333    8.2256264   -242.28137     24.54916    24.082827 
12780000    301.49051   -1732.0586    -441.9693     44.78254    24.078937 
12790000    294.28788    857.84386    321.51459   -32.577466    24.076771 
12800000    299.74395    168.36461   -775.80077    78.608013    24.075787 
12810000    296.16494    1269.7601   -849.96747    86.122954    24.071329 
12820000    302.04915   -212.22477   -641.06059    64.955464    24.067547 
12830000    297.33517   -108.65512    347.96313   -35.257364    24.069665 
12840000      297.188   -945.53347   -195.17865    19.776477    24.072413 
12850000    298.19489   -352.03884    1.0883776  -0.11027986    24.068292 
12860000    298.29733   -701.22624   -266.27494    26.980308    24.067278 
12870000    297.44237   -51.923432   -100.25752    10.158593    24.066182 
12880000    297.66273   -406.89386    35.923463   -3.6399449    24.071125 
12890000     303.0614    834.13729   -140.75367    14.261866    24.079131 
12900000    296.17012   -161.11988   -1187.4093    120.31424    24.078865 
12910000    297.27916     780.1003   -643.50484    65.203128    24.072412 
12920000    298.49656   -189.34774    360.39542   -36.517066    24.069266 
12930000    297.74639   -441.60151    169.18277   -17.142444    24.065045 
12940000    292.69476    36.529776   -801.98508    81.261139    24.062926 
12950000    296.08776   -129.22923   -251.76408    25.509995    24.060905 
12960000    299.46241   -406.39152   -192.39109    19.494027     24.06271 
12970000    297.67234   -401.79873    830.68527   -84.169185    24.062729 
12980000    301.43405    514.81947   -350.32221    35.496398    24.059054 
12990000    296.67859   -303.15214   -494.51575    50.106809    24.062771 
13000000    300.37527   -789.42937   -636.07294     64.45009    24.066333 
13010000    301.89516    98.988069   -657.80742    66.652337    24.074859 
13020000    297.13139    320.26766   -600.17417    60.812647    24.079499 
13030000     297.6428     567.3587   -231.79756    23.486888     24.08021 
13040000    290.99971   -491.00192     220.1625   -22.307965    24.079229 
13050000     296.9206    402.10453    556.56287   -56.393733    24.078915 
13060000    301.03277    -1278.096   -987.43118    100.05146    24.079718 
13070000    297.20572   -219.09359   -736.58561    74.634537    24.081054 
13080000    296.55533    126.87111     -222.326    22.527182     24.07937 
13090000    299.29278    675.05477    128.46309   -13.016523    24.080182 
13100000    295.99137   -600.57301    334.42905   -33.886024    24.080748 
13110000    298.58764   -459.27181    32.878958   -3.3314604     24.08103 
13120000    297.01837    522.74019    52.516044   -5.3211882    24.078633 
13130000    298.15439   -98.764851   -378.95337     38.39745    24.081867 
13140000    296.94869    424.11588    182.40751   -18.482441     24.08174 
13150000    297.47879   -557.96646   -277.20826    28.088127    24.083193 
13160000    299.14168   -167.52004   -617.42716    62.560807    24.091095 
13170000    301.52991    171.56038   -421.35533    42.693829     24.09513 
13180000    299.24347    30.081342    367.67012   -37.254175     24.09212 
13190000    297.33356   -325.82112   -152.40742    15.442682    24.094166 
13200000     298.7219   -121.77241    42.106396   -4.2664306    24.096515 
13210000    296.77649    715.35101   -407.28986    41.268645    24.091492 
13220000    303.40968     646.0508   -98.687031    9.9994635    24.088431 
13230000    302.55357    3.3855186   -137.43205    13.925303      24.0847 
13240000    299.52046    616.46921    374.55727   -37.952016    24.083824 
13250000     299.3057   -56.119122   -691.45538    70.061716    24.082508 
13260000    301.32384   -507.16538   -848.88387    86.013158    24.083759 
13270000    297.96136   -727.63439     237.6435   -24.079227    24.081258 
13280000    297.23026   -55.010614    524.00907   -53.095219    24.080403 
13290000    299.11854    91.094613   -785.05532    79.545731    24.084839 
13300000    295.81329   -352.37108    118.18941   -11.975542     24.08658 
13310000    299.79135   -637.60079   -1113.5819    112.83369    24.089475 
13320000    293.41463   -647.90174    -424.1285    42.974821    24.092792 
13330000    295.06228   -531.00773      284.493   -28.826253    24.094056 
13340000    298.13525   -91.099297   -771.47265    78.169467    24.102278 
13350000     299.1788   -658.96241    643.83877   -65.236964    24.102117 
13360000     297.2462   -629.53079   -448.10087    45.403821    24.099859 
13370000    297.15641   -90.675938    139.05369   -14.089615    24.101796 
13380000    301.04633    -246.7671   -638.99843    64.746515    24.101784 
13390000    298.13489   -309.96797    145.56125   -14.748994     24.09882 
13400000    299.61699    845.19299    4.2127334  -0.42685521    24.095647 
13410000    297.34424   -215.54066    176.74242   -17.908426    24.096682 
13420000    295.68415    877.40986   -725.07247    73.467968    24.097094 
13430000    294.45797    259.41045    899.27173   -91.118708    24.095122 
13440000    298.13813    102.89624    420.90271   -42.647967    24.096689 
13450000    300.77154   -761.62887    684.10911   -69.317355     24.09262 
13460000    296.84869   -366.46852   -203.08008    20.577089    24.085148 
13470000    300.50332    240.42406   -631.06593    63.942755    24.083673 
13480000    300.51379    364.17663   -1194.5947    121.04231    24.082717 
13490000    299.56609     369.6877   -228.99047     23.20246     24.08547 
13500000    299.22475    375.14944    362.36005   -36.716132    24.082919 
13510000    297.45401    380.16629   -1002.4039    101.56857    24.081448 
13520000    301.11103   -861.13633   -809.35185    82.007576    24.071833 
13530000    293.23265     677.5942   -1053.3748    106.73321    24.066708 
13540000    299.73253   -265.32259   -140.03564    14.189111    24.063401 
13550000    295.40593   -660.14785    439.83773   -44.566558    24.058826 
13560000    303.20924   -28.644582    -69.43387    7.0353869    24.054413 
13570000    301.83651    359.71485   -902.98596    91.495052    24.051165 
13580000    294.48494   -614.77213    343.26237    -34.78106    24.046259 
13590000    295.29752   -193.91787   -447.25443    45.318055    24.045652 
13600000    297.30947    44.967374    211.08243   -21.387927    24.048324 
13610000    298.33862    462.15939    325.31642   -32.962687    24.051898 
13620000    299.92761   -52.078378   -940.34154    95.280107    24.050393 
13630000     298.1491   -528.50412    77.361298   -7.8386336    24.049916 
13640000    293.75831    -783.7347   -1165.7878    118.12345    24.047423 
13650000    294.93461   -544.23381   -626.01982    63.431458    24.046701 
13660000    297.30179    165.83998   -281.62119    28.535267    24.047472 
13670000     297.5207    -5.717842    213.91233   -21.674667    24.049808 
13680000    297.53889   -393.03547   -577.01766    58.466315    24.058217 
13690000    297.35891    740.21814   -306.17996    31.023685    24.066367 
13700000    303.60302    50.209652   -943.87285    95.637917     24.07509 
13710000    297.24175    942.40897    22.572711   -2.2871799    24.080943 
13720000    296.35107   -799.08334    700.96954   -71.025739    24.086904 
13730000     298.9763    500.92085    484.28342   -49.070018    24.086751 
13740000    299.04808   -506.88842   -232.33913    23.541762     24.08521 
13750000    296.08627    361.18637   -304.13941    30.816925    24.085168 
13760000    296.14977   -409.34886    95.642618   -9.6909882    24.087858 
13770000    301.10212    35.928886    128.07224   -12.976919      24.0871 
13780000    292.60129    177.44566   -992.85269     100.6008    24.091034 
13790000    296.38677     1390.228     -344.954    34.952464    24.092186 
13800000    299.33079     494.5256   -421.38758    42.697096    24.093108 
13810000    298.22362    115.06477    184.54263   -18.698782    24.097706 
13820000     296.6964   -75.026799   -617.73148    62.591642     24.09683 
13830000     301.1184   -478.40081   -165.41428    16.760602    24.094708 
13840000    298.24931    104.86679   -542.56043    54.974935    24.092185 
13850000    295.21416   -410.91374   -513.36317    52.016523    24.092004 
13860000    299.13611    602.06548   -617.44922    62.563042    24.093856 
13870000    293.57048     473.0068    58.639352   -5.9416323    24.096852 
13880000    293.70922    692.76769   -401.18248    40.649815    24.098718 
13890000    301.93124    113.99224   -14.085595    1.4272229    24.099074 
13900000    296.61774    161.21621   -223.96697    22.693453    24.100053 
13910000    298.27566    449.80469   -1135.6797    115.07274    24.098555 
13920000    297.50651      501.269   -451.36139    45.734193    24.096919 
13930000    298.69236   -568.53527   -649.78117    65.839077    24.095608 
13940000    298.04218    462.90679   -600.95007    60.891265       24.094 
13950000     298.7032     130.2584    52.711236    -5.340966    24.091422 
13960000    295.68408    417.88053    57.025443   -5.7781031    24.086789 
13970000    297.09994    359.80981    341.39874   -34.592228    24.084469 
13980000    295.30829   -67.854715    178.64735   -18.101442    24.081997 
13990000     302.6621    518.80159    572.75252   -58.034149    24.081167 
14000000    293.79705    643.42189   -210.24158    21.302728    24.084227 
14010000    301.29388    391.91347    848.59048   -85.983431     24.08747 
14020000     297.7944   -192.97518   -104.11966    10.549925    24.085756 
14030000    294.83989   -8.6590278   -252.74923    25.609816    24.082399 
14040000    300.38944   -739.71845    211.84255   -21.464946     24.08284 
14050000    296.87463    782.29546   -924.27724    93.652392    24.081937 
14060000    301.98517    227.06806    420.72505   -42.629966    24.078425 
14070000    301.54741    131.27138   -643.77529    65.230532    24.077387 
14080000    299.61156    774.44747   -892.15904    90.398015    24.079174 
14090000    295.81768   -184.46728    420.34759    -42.59172    24.081639 
14100000     299.1287    479.57925    88.673373   -8.9848295     24.07894 
14110000    300.22723    148.35943     277.7488   -28.142897    24.080808 
14120000    297.86409    367.40396   -674.06708    68.299846    24.084441 
14130000    295.38591   -678.29801    -390.4658    39.563947    24.088587 
14140000    301.04244    246.94843   -856.20206    86.754674    24.087844 
14150000    297.29165   -96.730515    -532.0447    53.909429    24.084027 
14160000    297.67704    -766.7804   -763.29542    77.340908    24.085041 
14170000    298.54824   -832.50914    478.75251   -48.509598    24.085082 
14180000    297.46944   -172.82006    -78.05864    7.9092917     24.08636 
14190000    295.01951    55.993775    206.33716   -20.907113    24.088268 
14200000    298.06526   -266.76135   -361.84257    36.663698    24.091602 
14210000    295.81986   -450.32885    271.28454   -27.487906    24.094565 
14220000    300.13803    449.47915   -458.79309     46.48721    24.102584 
14230000     294.6652   -165.16534    556.72616   -56.410278    24.113188 
14240000    299.00515   -483.79901    447.56928   -45.349957    24.118201 
14250000    298.16504    396.76793   -746.43366    75.632391    24.120214 
14260000     297.1901   -51.435883   -1337.4272    135.51482    24.117594 
14270000    301.30055    723.97237    402.78038   -40.811722    24.112205 
14280000    296.72849   -467.56737   -37.402925    3.7898514    24.108864 
14290000    296.69504    549.71049    4.4534938  -0.45125026    24.104628 
14300000    297.10142    308.11048   -350.42711    35.507027    24.103173 
14310000    299.35562    689.33649   -820.18215    83.104956    24.102603 
14320000    301.18092    714.32437    512.25912   -51.904656    24.099433 
14330000    295.63759   -648.31189    87.793322   -8.8956583    24.098821 
14340000    297.65746   -158.80603    -745.3416    75.521738    24.098073 
14350000    299.46271   -479.43026   -582.54185    59.026053    24.099101 
14360000     299.6559    1416.7739    234.91059   -23.802316    24.094873 
14370000    298.07358    272.45988   -929.52561    94.184182    24.090196 
14380000    293.93166    612.02037    -559.4446    56.685724    24.090409 
14390000    298.28017   -142.92512   -422.01046     42.76021    24.087458 
14400000    297.52157    -644.8755    28.232273    -2.860635    24.086168 
14410000    300.78364   -532.33317   -463.43643    46.957696    24.085692 
14420000    298.75746    395.85358   -310.54425    31.465896    24.086104 
14430000    299.48876    773.10853    -465.3629    47.152895    24.084268 
14440000    298.49569   -1572.4547   -1580.0592     160.0995    24.079557 
14450000    298.78843    220.29789   -414.02099    41.950677    24.075944 
14460000    295.98693     492.6184    354.31429   -35.900895    24.068871 
14470000     297.2765   -656.05733    -197.9255    20.054801    24.064224 
14480000     294.6188    36.418733     -300.052    30.402769     24.06265 
14490000    297.39329   -145.21679   -422.77672    42.837851    24.062188 
14500000    296.93609   -677.59138     305.5678   -30.961657    24.059028 
14510000    298.31152   -495.86713   -850.24323    86.150896    24.056836 
14520000    295.79669   -1214.8897    428.68729   -43.436739    24.052446 
14530000    299.43641    257.06944   -353.08498    35.776336    24.050236 
14540000    298.79525    -1003.046    -669.4257    67.829559    24.049462 
14550000     302.6182   -574.53665   -225.14141    22.812454    24.049316 
14560000    294.38853   -708.47585   -186.57591    18.904805    24.046934 
14570000     295.7984    454.91051   -166.95301    16.916513    24.045316 
14580000    296.01189   -303.27141    237.22542   -24.036865    24.044076 
14590000    300.29367    420.38946    948.42985   -96.099655    24.037165 
14600000    296.21424   -220.76825     14.60884   -1.4802407     24.03486 
14610000     293.0402    356.86168    -431.5986    43.731728    24.034298 
14620000    298.16691    573.49774   -24.309858    2.4631963    24.024713 
14630000    294.67645   -276.99878     780.2969   -79.063583    24.019319 
14640000    297.42636    827.68756   -490.15479    49.664934    24.012772 
14650000    297.87546    553.28537   -652.84909    66.149934    24.008495 
14660000    296.36891   -147.89932    493.57987    -50.01198    24.008471 
14670000    299.19109   -323.07606   -190.68329    19.320985    24.007593 
14680000    298.48661   -1165.9532    -93.67432    9.4915505    24.006944 
14690000    302.88078    734.93231    634.06006   -64.246136    24.007784 
14700000    295.69862    144.54412   -415.37786    42.088162    24.006126 
14710000    292.55487    -174.8577    381.05756   -38.610657    23.997659 
14720000    297.84976    196.51468   -291.20359    29.506203    23.991459 
14730000    299.37754    1012.6043   -85.138055    8.6266134    23.984456 
14740000    300.64772    517.50715    153.90378   -15.594301    23.977176 
14750000    300.01868     185.5365    247.90221   -25.118692    23.974706 
14760000    295.51083   -255.58264   -630.60212     63.89576    23.971666 
14770000    300.44208   -794.31178   -361.25871    36.604539    23.971364 
14780000    298.16337     212.5512   -1188.4104    120.41569    23.965755 
14790000    295.47709   -1.3375484    625.92122   -63.421467    23.960631 
14800000    296.21492     67.49658   -767.15571    77.732053    23.956018 
14810000    297.08736    308.34547   -929.79146     94.21112    23.952769 
14820000    298.51215   -513.00713   -731.13273    74.082024    23.951949 
14830000    299.44702    159.72666   -100.23946    10.156764    23.948988 
14840000    296.90732    918.32325   -457.60643    46.366971    23.950882 
14850000    298.18793   -379.37067   -343.57987     34.81323    23.948112 
14860000    298.63644    151.19169   -172.36846    17.465235    23.947596 
14870000    297.07642   -100.82668   -110.81663    11.228495    23.944603 
14880000    298.26563     468.1572   -668.18187    67.703528    23.944075 
14890000    298.25137   -293.15068   -457.14427    46.320144    23.944481 
14900000    298.46878     294.3792   -255.03296    25.841215    23.941107 
14910000    295.08863      717.456   -460.94857    46.705614    23.935153 
14920000    301.80412   -29.860504    152.40435   -15.442371    23.930838 
14930000    297.03997    794.51285   -797.51586    80.808295    23.932228 
14940000    294.47481    174.25967   -863.76587    87.521077    23.935181 
14950000    299.75745   -107.25993   -433.07365    43.881188    23.937021 
14960000    300.60531    784.09374   -986.05249    99.911769    23.939267 
14970000    297.92843    652.80312   -778.43526    78.874953    23.942323 
14980000    300.51701   -557.62048   -1632.8461    165.44813    23.940567 
14990000    299.96368    123.87954    118.22359   -11.979006    23.943461 
15000000    298.13286    181.89294   -1156.4023    117.17246    23.945985 
15010000    297.80006   -223.98265   -226.79805    22.980312    23.947961 
15020000     296.5507    -74.16625    29.557094   -2.9948726     23.94829 
15030000    297.24269   -168.23381   -856.73957    86.809137    23.950434 
15040000    300.67856    142.22792    229.08215   -23.211749    23.948707 
15050000    298.27326    273.29715   -235.97691     23.91036    23.946047 
15060000    294.75462    413.95217   -231.07354    23.413527    23.946565 
15070000     295.1816    32.892801   -105.76814    10.716957    23.949151 
15080000    297.45841    960.89815   -308.40601    31.249239    23.955281 
15090000    298.73903   -59.735917    298.40981   -30.236374    23.958655 
15100000    296.01037   -39.707497    355.69091   -36.040381    23.957336 
15110000    299.30385   -530.76732   -558.04559    56.543969     23.95866 
15120000    296.81085   -50.128448    184.36048   -18.680326    23.962587 
15130000    295.75623    403.34898    -325.9143    33.023266    23.958402 
15140000    294.50986   -670.15462   -795.09863    80.563368    23.954919 
15150000    297.98794   -82.119074   -126.02824    12.769812    23.952292 
15160000    292.66897    223.01711   -1125.4701    114.03826    23.947832 
15170000    296.07065   -1013.2559   -89.195071    9.0376906    23.947185 
15180000    297.17386   -293.03411   -344.91833     34.94885    23.945994 
15190000    298.83915    199.80533    -726.5626    73.618955     23.94435 
15200000    299.91726   -396.44655   -121.68591    12.329824    23.941888 
15210000    296.87277   -352.88068   -1321.8952    133.94103    23.939751 
15220000    300.97493   -121.49589    170.64637   -17.290744    23.938878 
15230000    292.91342     758.8182   -219.42284    22.233019    23.938085 
15240000    301.98805   -219.44522    603.22653   -61.121929    23.940018 
15250000    301.22553   -969.79854    147.05823   -14.900675    23.944268 
15260000     296.7568   -247.24505    -320.3062    32.455026    23.946103 
15270000    299.28593    146.25095   -356.54353    36.126774     23.94808 
15280000    298.78321     393.5231    243.41637   -24.664164    23.944417 
15290000    296.25344   -595.48401   -1053.0501     106.7003     23.94297 
15300000    300.65155    654.07373   -317.42593    32.163183       23.939 
15310000    295.23492      -450.18   -292.64961    29.652722    23.943499 
15320000    299.29712   -701.99879   -158.96771    16.107403    23.947501 
15330000    299.65521      83.6445   -294.09877    29.799558    23.949417 
15340000    297.33171    524.54482    -316.5731     32.07677    23.952017 
15350000     300.9471   -581.26199   -883.76749    89.547741     23.95237 
15360000    296.42302   -117.93997   -624.70068    63.297797    23.954929 
15370000    302.60092    245.90951   -611.07604    61.917279     23.95888 
15380000    294.56844    627.62447   -840.24675    85.138002     23.95612 
15390000    298.54766   -510.52664    409.80201   -41.523189    23.955883 
15400000    299.41235    466.02363    -478.8419    48.518655    23.956361 
15410000    294.84278    275.88695    603.95518   -61.195758    23.959259 
15420000    296.04433    -134.6433   -838.02058    84.912436    23.963812 
15430000    297.54459    228.03931   -524.67677    53.162873    23.965856 
15440000    299.81391   -68.149696   -578.91689    58.658754    23.970116 
15450000    300.56349   -583.10874    -577.9236    58.558109    23.968941 
15460000    296.29693    71.394778   -1428.8048    144.77365    23.972592 
15470000    298.92519    387.96506    -138.2979    14.013035     23.97062 
15480000    296.20585   -521.92311    755.82411   -76.583878    23.967901 
15490000    299.61187   -602.23411   -1043.7448    105.75744    23.968057 
15500000    302.31925    769.47233   -1003.3293    101.66234    23.968601 
15510000    295.36544    711.67982   -131.04687    13.278324    23.970617 
15520000    295.63164   -649.78686   -178.87746    18.124759    23.970527 
15530000    300.22271    525.60131   -231.17914    23.424226    23.970411 
15540000    296.53778   -144.54976   -340.65516    34.516884    23.975763 
15550000     297.2827    -76.56567   -1671.4025    169.35485    23.980162 
15560000    298.05821     92.40607    -669.8513    67.872683    23.982289 
15570000    297.96976    785.03573     282.6268   -28.637161    23.985482 
15580000    294.33748     260.5614    768.13012   -77.830784     23.98484 
15590000    301.32546   -529.71239   -113.47701    11.498058    23.985066 
15600000     299.7757    13.657568   -785.17624    79.557983    23.981628 
15610000    298.84502    890.23207   -191.51809    19.405571    23.982084 
15620000    296.59367     1646.181     60.72581   -6.1530427    23.976668 
15630000    297.75106   -158.36847    -1037.998    105.17515     23.97444 
15640000    302.58581    211.24496   -396.06226    40.131009    23.978981 
15650000    295.56856    170.77284    -1150.799    116.60471    23.978308 
15660000    301.61585    632.51657   -454.97491    46.100333    23.977213 
15670000    298.97771   -595.75063    786.79279    -79.72178    23.974441 
15680000    293.18942    423.73945   -333.55682    33.797645    23.974401 
15690000    298.19061   -1029.1352   -630.82236    63.918075    23.972849 
15700000    299.36092    208.36505   -830.30495    84.130649    23.972569 
15710000     299.8549    -520.8438   -858.11246    86.948245    23.968797 
15720000    298.38999   -746.39685   -594.08397    60.195558    23.967484 
15730000    299.58346    710.62298   -846.58025    85.779744    23.967645 
15740000    296.13678     948.8209    85.635562   -8.6770233    23.971796 
15750000    298.35198    195.06268    31.484878   -3.1902053     23.97525 
15760000    296.86229   -51.883352   -573.55492    58.115452    23.974691 
15770000    298.94474   -286.06719   -975.84762     98.87776     23.97643 
15780000    297.74451   -175.86283   -724.21581    73.381167    23.978935 
15790000    297.05167   -190.77416   -708.23115    71.761521    23.978836 
15800000    301.36288   -98.700542   -1431.6995    145.06696    23.976883 
15810000     302.4273    663.85623    382.87863   -38.795177     23.97892 
15820000    297.61182   -876.03932   -131.27593    13.301534    23.978842 
15830000    300.23347   -675.15676     178.3569   -18.072013    23.972418 
15840000    299.02398   -484.54306   -266.89002    27.042631     23.96689 
15850000    299.29715    791.46012    20.690629    -2.096478    23.964276 
15860000    296.51802    311.54547    -64.15671    6.5006787    23.964797 
15870000    295.81791    797.86772    189.85233   -19.236787    23.964728 
15880000    296.39273    763.02405   -1238.5337    125.49442    23.966796 
15890000    297.52141   -273.43039   -877.93195    88.956455    23.969781 
15900000    298.15163    814.28287   -316.77342    32.097067    23.973076 
15910000    295.55831    21.436584   -203.28034     20.59738     23.97252 
15920000    297.13189    325.11706   -436.09018    44.186838    23.973774 
15930000     304.1458     191.0286   -701.40354    71.069713    23.968941 
15940000      301.744    386.45329   -225.72802    22.871892    23.967306 
15950000     300.1831   -204.82393   -764.34345      77.4471     23.96911 
15960000     299.4812   -157.72848   -528.36107    53.536186    23.970624 
15970000    295.92554    174.59305    379.95425   -38.498864    23.972579 
15980000    300.51864    251.39402    -1094.308    110.88076     23.97829 
15990000    300.38126    44.212259   -636.60059    64.503555    23.982706 
16000000    296.00104    -84.93718   -123.80992     12.54504    23.983904 
16010000    296.24008    238.93209   -1223.1685    123.93755     23.98554 
16020000    301.43584   -634.26103   -633.52509     64.19193    23.986798 
16030000    300.94446    590.67084   -77.900199    7.8932377    23.991778 
16040000    299.42234    6.8905335   -298.86534    30.282531    23.990753 
16050000    295.46584    726.54303   -365.28161    37.012159    23.990769 
16060000    298.44166    745.29968   -39.799982    4.0327332    23.995687 
16070000    298.16762   -432.78422   -1308.9658    132.63096    23.998838 
16080000     301.6144   -129.39766   -505.43055     51.21275    23.997023 
16090000    300.38732   -150.17891   -15.188641     1.538989    24.001447 
16100000    296.05465    405.64313    582.30844   -59.002402    24.008212 
16110000     299.4839   -455.19618   -766.85785    77.701872     24.01327 
16120000    295.41293    601.51658    149.74699   -15.173114    24.016739 
16130000    296.30108   -402.41039    186.52402   -18.899546    24.015763 
16140000    293.96978    430.12977    -105.9271    10.733063    24.016777 
16150000     297.3026    625.50814    628.09331   -63.641555    24.013726 
16160000    300.21751    512.72272    -236.3568    23.948853     24.01089 
16170000    300.75494    330.66372   -750.19183    76.013187    24.004717 
16180000    296.15555    890.34243   -1181.4475    119.71017    24.001589 
16190000    298.49578   -953.48458   -387.58305    39.271852    23.998582 
16200000    298.37484    596.59117   -222.08404    22.502665     23.99867 
16210000    296.25331   -168.37865   -153.77446    15.581198     24.00122 
16220000    294.84495    497.43766    74.620365   -7.5609085    24.001247 
16230000    299.11978   -777.39517    529.64048   -53.665821    24.004642 
16240000    294.85805    279.48558    354.14422   -35.883664    24.008538 
16250000    294.86573   -381.37297   -204.17328    20.687858    24.008281 
16260000    294.52592    541.10262    385.73204   -39.084299    24.008371 
16270000    294.95557   -216.44959    168.02614   -17.025248    24.008048 
16280000    294.02977    -598.9935   -46.608388    4.7225949    24.004318 
16290000    295.29626   -572.06995   -542.41536    54.960236     24.00338 
16300000    297.90346     -929.016   -535.39624    54.249024     24.00519 
16310000    293.23924   -242.30308   -234.57669    23.768483    24.005575 
16320000    294.07406   -285.67855   -131.72515    13.347051    24.003869 
16330000    297.87893    842.38845    122.24439   -12.386413    24.003301 
16340000    296.44062    674.02872   -639.85432    64.833239    24.002964 
16350000    295.04674   -494.18093   -881.21598    89.289209    24.002353 
16360000    295.98569    271.18553    347.79726   -35.240558    24.005744 
16370000    301.33294   -350.17917    -1062.343    107.64191    24.006546 
16380000    302.26899    -269.3521   -245.13545    24.838349    24.004574 
16390000    296.92408   -26.804124   -820.43476    83.130552    24.003758 
16400000    293.23852   -295.18536    285.53663   -28.931999    24.001791 
16410000    299.03636    83.811364   -98.530294     9.983582     24.00214 
16420000    298.39338   -813.08135    554.99136   -56.234499    24.002294 
16430000    302.55262    1188.5047   -1501.4169    152.13107    24.005015 
16440000    298.51182   -518.09302   -744.85336    75.472267    24.010721 
16450000    299.73888   -358.96393   -1342.5601     136.0349    24.017095 
16460000    299.09808    495.24004   -871.37293    88.291862    24.025703 
16470000    297.28259     101.4323    81.090355   -8.2164802    24.029451 
16480000    297.65377   -1084.2386   -518.22758     52.50941    24.037374 
16490000    301.75779    -527.0231   -10.501075    1.0640214    24.046035 
16500000    296.03805   -938.04619    219.37206   -22.227874    24.050837 
16510000    300.87483   -458.38184   -1112.2701    112.70076    24.060522 
16520000    300.96039    306.00523   -573.56045    58.116012    24.069977 
16530000    299.07204    950.60379    22.027687   -2.2319554    24.076737 
16540000    295.96507    547.70443   -1165.0982    118.05357    24.084619 
16550000    297.65544   -345.30469   -385.75266    39.086389    24.094272 
16560000    302.44542    412.91223    -362.7223    36.752837    24.103464 
16570000    297.97168   -928.59214   -324.83487    32.913893    24.112349 
16580000    298.10872    387.80488    237.46182   -24.060819     24.11506 
16590000    303.32843   -52.221211    183.53318     -18.5965    24.116805 
16600000    296.33688    1004.5395   -268.71888    27.227941    24.120861 
16610000    297.70998    249.98687   -578.47744    58.614227    24.126752 
16620000    296.78034    602.82416   -21.773367    2.2061864    24.133013 
16630000    300.47743    449.64802   -428.78436    43.446576    24.138771 
16640000    295.48993   -1241.8336    53.871435   -5.4585231    24.144537 
16650000    298.67531    129.66607   -218.84596    22.174567    24.150724 
16660000    299.40217    903.44423   -71.461702     7.240857    24.153603 
16670000     299.8304    478.66454    -519.4169    52.629917    24.159346 
16680000    299.22244   -423.30627    1055.7524   -106.97411    24.160337 
16690000    298.99241   -245.43165   -982.62979    99.564963    24.159345 
16700000    293.15691     246.2927   -767.73529    77.790778    24.159505 
16710000    299.40271   -598.37516    252.78069   -25.613003    24.164704 
16720000    299.37548    499.77429    50.154675   -5.0819224    24.164415 
16730000    293.07598    306.30757   -9.1709305   0.92924453    24.166658 
16740000    301.52749    448.83836    634.02395   -64.242477    24.168495 
16750000    298.59429   -270.81014    288.32993    -29.21503    24.172283 
16760000    298.84261    1027.4832   -127.31751    12.900447    24.170731 
16770000    299.87508   -482.20602   -974.13261    98.703987    24.172588 
16780000    302.09448    1394.1406   -166.59779    16.880521    24.177128 
16790000    294.68853    573.36412   -218.20712    22.109837     24.17809 
16800000    297.61732    374.21399   -269.75375    27.332799    24.179831 
16810000    297.81257    1051.4981   -1334.1375    135.18148    24.181224 
16820000    299.06581   -236.08603    62.615469   -6.3445124    24.182282 
16830000    299.99954    256.14117    79.316364   -8.0367306    24.184193 
16840000    298.56751    183.40244   -167.10544    16.931958    24.182126 
16850000    297.38123    241.55264    303.15311   -30.716989    24.185212 
16860000    298.52948   -45.148632    422.48778   -42.808575    24.187909 
16870000    298.57861   -243.17007    85.590371   -8.6724443    24.184352 
16880000    296.00884    253.58276    -378.8818    38.390199     24.18204 
16890000    299.43083    213.40242   -168.50082    17.073345    24.176989 
16900000    298.96644    898.96759    548.34634   -55.561193    24.174396 
16910000    296.29788    590.23197    -533.8247    54.089788    24.176619 
16920000    294.88825    470.11073    -603.6959    61.169487    24.176606 
16930000    298.68362    318.79507   -638.45116    64.691063    24.172801 
16940000    299.63397     1011.253   -52.207122    5.2898866    24.169498 
16950000    294.82113   -536.05658   -184.89184    18.734165    24.166637 
16960000    294.98239     -516.474   -254.04244     25.74085    24.162176 
16970000    295.39017    247.56652   -310.97002    31.509037    24.161786 
16980000    298.22115    527.25104   -58.929808    5.9710628    24.166405 
16990000    297.17993   -75.329667    569.59622   -57.714337    24.167137 
17000000    296.40857   -459.89765    -424.6276    43.025391    24.167188 
17010000     300.4547   -19.018002   -429.78719    43.548187    24.165112 
17020000    297.03717   -302.84336     483.4458   -48.985145    24.169326 
17030000    296.60093    486.57276   -151.20071    15.320412     24.17437 
17040000    296.43242    337.00051   -22.945599    2.3249629     24.17797 
17050000    297.01528   -127.84065    53.878468   -5.4592357    24.179422 
17060000    303.59018   -1408.2526   -680.04802    68.905865    24.182134 
17070000    300.65034    288.36783   -413.68168    41.916297    24.184611 
17080000    294.04386    768.77647   -67.520979    6.8415632     24.18731 
17090000    295.91256    421.25614    58.877595   -5.9657723    24.191087 
17100000    297.96108   -422.59979   -78.437028    7.9476318    24.194407 
17110000    300.51723   -815.37226    327.24105   -33.157699    24.192973 
17120000    298.39174   -581.15586   -523.19281    53.012511    24.190818 
17130000    300.86954    528.37957   -955.02651    96.768061    24.190728 
17140000    298.97738   -214.15525    -825.7241    83.666494    24.194736 
17150000     295.8713    23.361035    518.38047   -52.524901    24.198615 
17160000    299.32245    82.005701   -603.51446    61.151102    24.203829 
17170000    297.07888   -236.98702   -311.72288     31.58532    24.209788 
17180000    301.08979    62.397477    957.00144    -96.96817    24.211313 
17190000    296.28353    1094.0656    73.722498   -7.4699321    24.212767 
17200000    298.19499    946.98362   -114.07671    11.558823    24.215543 
17210000    298.26125    191.67047    72.592551   -7.3554402    24.217609 
17220000    301.30025    716.78263   -956.60948    96.928456    24.215769 
17230000    297.34506    1247.1777   -248.76531    25.206145    24.216398 
17240000    300.72961    306.99793    -934.3206    94.670034    24.212816 
17250000    299.25682    264.03238    629.30783   -63.764616    24.212269 
17260000    297.02094    372.75132   -522.06586    52.898324    24.213204 
17270000    295.17286    1054.4156    774.47179   -78.473354    24.209715 
17280000    297.30249   -341.39558   -460.99454    46.710272    24.207656 
17290000    295.70756   -580.84365   -666.05029    67.487546    24.204764 
17300000    295.26071    575.23241   -824.45066    83.537463     24.20748 
17310000    299.74511    311.95849    532.29265   -53.934553    24.205591 
17320000    299.21115    747.36392   -41.342681    4.1890472    24.205879 
17330000    302.36503   -796.94278   -386.59568    39.171808    24.210326 
17340000    299.42942    45.848271    911.57694   -92.365534    24.209301 
17350000    298.14011   -689.59923    145.58059   -14.750953     24.21294 
17360000    298.49561    601.42357   -195.11805    19.770337    24.217772 
17370000    296.08265    1078.3886   -626.08261    63.437821    24.221176 
17380000    294.73968   -49.263778    272.07516   -27.568016    24.222454 
17390000    295.72066    341.74677   -530.54247    53.757215    24.225899 
17400000    305.27924   -395.09241   -44.934217    4.5529595    24.231509 
17410000    295.53531   -1083.7956   -327.92437    33.226936    24.237197 
17420000    301.20572    335.59477    311.68302   -31.581282    24.240709 
17430000    299.73241   -403.32787    560.45458   -56.788061    24.247505 
17440000    299.35387    474.87959    -885.1706    89.689911    24.256307 
17450000    300.11768    762.11285    141.79569   -14.367448    24.260685 
17460000    296.61927   -35.614889   -165.34148    16.753225    24.262214 
17470000     296.4891    379.16714    77.416828   -7.8442601    24.269576 
17480000    298.46628    647.43735    1062.2051   -107.62793    24.276823 
17490000    295.02821      1312.76   -220.46513    22.338629    24.278476 
17500000    299.08807   -696.66401    -964.9562    97.774187    24.285159 
17510000    299.33156    402.77135   -48.143631    4.8781534    24.282938 
17520000    301.67812    204.33914   -259.84842    26.329142    24.281713 
17530000     298.2913   -324.62243   -991.13721    100.42698    24.285795 
17540000    298.46044     189.5438    56.300059   -5.7046035    24.291866 
17550000    292.61431   -940.69318   -658.07236    66.679182    24.296742 
17560000    299.35007   -149.41134    -270.7148    27.430177     24.29844 
17570000    304.34759   -316.79895   -334.24935    33.867816    24.302736 
17580000    302.22273   -282.81577   -113.51377    11.501783     24.30864 
17590000    294.96881   -128.27148   -309.39224    31.349169    24.312217 
17600000    294.90282   -318.45881    372.01246   -37.694163    24.314817 
17610000    298.78942    267.89942    1154.7184   -117.00184    24.321447 
17620000     297.8723    286.42597   -78.042733    7.9076799    24.328296 
17630000    295.10695    696.49639    220.94423   -22.387174    24.336113 
17640000    295.06107   -600.63377   -2.1088417   0.21367839    24.340574 
17650000    296.43207   -53.541775    -103.4673    10.483824    24.346763 
17660000    300.76428   -727.46077   -486.90294    49.335441     24.35225 
17670000    297.62639    451.29429    404.83369   -41.019774    24.357559 
17680000    296.98968   -780.79802   -139.15582    14.099963    24.361963 
17690000    292.17782   -304.37638   -351.59873    35.625741    24.368256 
17700000    299.41892    91.532988    -739.8113     74.96138     24.37387 
17710000    301.19621    -573.0875    -1064.175    107.82753    24.377351 
17720000    296.32216    983.44407   -62.284632    6.3109904    24.384919 
17730000    297.33423    84.052962   -907.27652    91.929794    24.387476 
17740000    295.57056   -29.545097    297.55595   -30.149857    24.393115 
17750000    297.71221    273.78283   -883.39773    89.510275    24.398373 
17760000     297.2121    -276.3163   -588.36152    59.615731    24.402361 
17770000    300.76142   -93.630611   -1460.8642    148.02206    24.410711 
17780000     292.6792   -1156.8393   -617.25858    62.543725    24.412316 
17790000     299.9303   -732.94452   -831.24784    84.226187    24.415747 
17800000    296.69297    1569.0409    427.88854   -43.355807    24.420653 
17810000    300.81395     184.8545   -578.54936    58.621514    24.421646 
17820000    299.63792   -598.37131   -476.81082    48.312857    24.424332 
17830000    297.58652   -49.183658    209.23096   -21.200327    24.425363 
17840000    299.63967    133.93306   -431.88706    43.760956    24.428404 
17850000    297.56653   -222.20951    656.13607   -66.482988    24.431099 
17860000    296.69139   -143.48963    574.89592    -58.25133    24.438277 
17870000    297.66364   -569.97851   -650.26936    65.888543    24.439661 
17880000    296.13213   -637.82085   -187.34282    18.982511    24.441438 
17890000    297.31339    651.89893   -74.006186    7.4986768     24.44034 
17900000    298.59233   -852.75645   -800.05612    81.065687    24.439323 
17910000    299.94425   -686.44172   -544.56065    55.177608    24.444486 
17920000    298.54618   -672.49567    795.17957    -80.57157    24.449384 
17930000    296.50463   -230.40335   -61.980782    6.2802028     24.45045 
17940000    295.54436   -720.40514   -133.00005     13.47623    24.451217 
17950000     295.9415    165.51527   -498.25428    50.485614    24.455314 
17960000    293.77779   -308.50822    578.71814   -58.638615    24.455265 
17970000    295.62013     602.5741   -636.08252    64.451061    24.454947 
17980000    298.05906   -236.07992    71.140936   -7.2083553    24.454353 
17990000     297.9863     595.8833    361.14751   -36.593272    24.454204 
18000000    297.19871    266.36366   -976.94812    98.989269    24.452884 
18010000    295.07681    358.43929    -842.2197    85.337911     24.45602 
18020000    297.43898   -465.94797    -38.64381    3.9155841    24.457767 
18030000    301.02091   -690.35755   -1552.8281    157.34031    24.458538 
18040000    298.16571    374.07509   -1368.4216    138.65531    24.459838 
18050000    298.07587    29.349755   -68.626201    6.9535498    24.462946 
18060000    297.48317   -612.95901    151.96042    -15.39739    24.466516 
18070000    299.91755    -2.363376   -250.01031    25.332295    24.468031 
18080000     296.7283    1224.5007   -370.84833    37.576207    24.469309 
18090000    301.70147    -71.44954    339.47196   -34.396996    24.473478 
18100000    297.35151   -716.88037   -177.90302    18.026024    24.477562 
18110000    303.30399    1219.4776    206.95808   -20.970027    24.482429 
18120000    293.88965    1578.1327   -925.37892    93.764019    24.485549 
18130000    294.75056   -504.36508    -343.7833    34.833842    24.490441 
18140000    298.00728   -351.09519   -214.18599    21.702395    24.492884 
18150000    300.85567    415.16978   -200.93753    20.359995    24.496353 
18160000    296.91222     44.59092    143.48582   -14.538701     24.49587 
18170000    295.66604     431.2888   -45.844932    4.6452377    24.496586 
18180000     296.1129    427.01366    472.48102   -47.874139    24.500729 
18190000    300.95319   -869.71197   -578.45895    58.612353    24.505154 
18200000    295.04595   -153.91133   -1214.5605    123.06534    24.513287 
18210000    298.89402    615.05545    70.332811   -7.1264721    24.522351 
18220000    297.73665   -1460.4843    -25.78872    2.6130421    24.531407 
18230000    297.38462    444.79655   -1023.0444    103.65998    24.539158 
18240000    296.52564  -0.71037728   -915.59187    92.772347     24.54217 
18250000    297.64793    1482.3986    154.16396   -15.620663    24.544891 
18260000    298.67149    18.960098   -223.49465    22.645595    24.546943 
18270000    295.94622    116.22445   -931.20861    94.354713     24.54674 
18280000    298.84367    117.88483   -17.037831    1.7263582      24.5481 
18290000    296.30224    958.59602   -867.16985    87.865985    24.553908 
18300000    299.82732    66.056485    234.56676   -23.767477    24.560597 
18310000    300.14544   -2.6840559   -613.06979    62.119296    24.566397 
18320000    300.82843   -97.651857   -994.11718    100.72892    24.570645 
18330000    301.51135    232.24307   -910.98994    92.306056    24.578325 
18340000    297.90637    300.78942   -999.06643    101.23041    24.584958 
18350000    295.96195    35.957521   -123.39287    12.502783    24.591012 
18360000    298.59699    765.93292    441.25833     -44.7105    24.596032 
18370000    293.07508    96.084498    -636.2036     64.46333    24.601242 
18380000     300.9371    688.89765   -569.64408    57.719186    24.601829 
18390000     297.7084   -564.15949   -618.93636    62.713727    24.603135 
18400000    296.23845     418.0008   -398.88476    40.416999    24.603165 
18410000    296.92253    550.49029   -746.00966    75.589429    24.602769 
18420000    301.83299   -303.41126    360.62142   -36.539966    24.599376 
18430000    300.55096   -529.97598    546.73509   -55.397933    24.596129 
18440000    300.24594    1204.3121   -412.52106    41.798696    24.598193 
18450000    296.75409   -474.67865   -27.412629    2.7775846    24.597533 
18460000    298.42239    1029.9077   -459.58687     46.56764    24.597369 
18470000    294.37716    295.48284   -808.52309    81.923602    24.595177 
18480000    298.81209    593.78271   -136.25465    13.806002    24.591587 
18490000     295.1813     518.2113   -16.328596     1.654495    24.591952 
18500000    298.35174    166.44012   -298.52752    30.248301    24.590139 
18510000    302.08512    399.64703   -125.47427    12.713681    24.589667 
18520000    294.57184   -847.13631   -846.12706    85.733824     24.58381 
18530000    298.68291    -916.2474     20.86764   -2.1144136    24.579068 
18540000    297.65259    254.70979   -873.21457    88.478466    24.577295 
18550000    301.13481    28.278838   -129.69952    13.141804    24.575046 
18560000    300.00408   -312.73347   -130.31675    13.204345    24.572448 
18570000    296.25103    686.65884    265.25969   -26.877438    24.570266 
18580000    295.03037   -379.14604   -817.65527    82.848921    24.571376 
18590000    297.74708    91.839335   -243.83812    24.706898    24.572463 
18600000    296.35924    -746.8199    205.19102    -20.79098    24.572231 
18610000    300.69437   -296.15836    207.00515   -20.974797    24.569977 
18620000    301.13252    61.127671   -731.59981    74.129351    24.566074 
18630000    294.71029   -428.70363   -1492.6793    151.24573    24.566362 
18640000    298.82643    708.47952   -425.80722    43.144917    24.562382 
18650000    301.13957   -91.089362   -498.86029    50.547019    24.560634 
18660000    303.31982   -126.28715   -198.79397    20.142799     24.55984 
18670000    297.63031    1174.9082   -1133.2551    114.82707    24.562188 
18680000    299.66745   -201.04045   -642.03239    65.053932    24.564822 
18690000      296.132   -467.25612    -852.2653    86.355782     24.56722 
18700000    294.13499   -256.73446    -342.0256    34.655744    24.564449 
18710000    296.84769    413.17371   -130.08264    13.180623    24.563155 
18720000    297.13719    1457.8632   -959.44658    97.215925    24.561868 
18730000    295.27006    508.23479   -410.73505    41.617729    24.557983 
18740000    298.43435    757.88104    314.22004   -31.838346    24.550229 
18750000    298.52126     -299.703    276.24916   -27.990946    24.544679 
18760000    299.64999     843.0138    633.81825   -64.221634    24.541587 
18770000    298.96274    99.289133    483.96619   -49.037874    24.536669 
18780000    292.55722   0.13913706    355.62057   -36.033254    24.535415 
18790000    301.75223   -244.21014    474.61038   -48.089897    24.529937 
18800000    301.46329    132.03278   -111.66981    11.314943    24.524136 
18810000    299.71415    509.30066    228.14151   -23.116438     24.51633 
18820000    295.96631    196.40707   -344.39941     34.89627    24.510353 
18830000    295.60778   -754.45775   -463.99381    47.014173    24.504261 
18840000    297.89725    250.03406   -230.09191    23.314063    24.503982 
18850000    297.02939   -1001.7958    166.86928    -16.90803    24.501193 
18860000    299.06492   -1304.1969    217.38639   -22.026676    24.498691 
18870000    298.20205   -681.45959    373.92964   -37.888421    24.494667 
18880000    295.95508    125.89917   -14.653994     1.484816    24.491075 
18890000    299.32857   -379.85025    274.20976   -27.784303    24.487531 
18900000    298.98801    48.452921   -226.85471    22.986054    24.486436 
18910000    293.56679   -1046.2015    10.502248   -1.0641402    24.484825 
18920000    298.88365    -1082.235    210.77607   -21.356886     24.48238 
18930000    296.20668   -1414.8761   -749.38312    75.931245    24.478503 
18940000    298.69681   -664.14613   -714.35965    72.382491    24.474506 
18950000    298.84288   -363.85077    -236.0567    23.918445    24.470043 
18960000    296.37583    823.19318    2.2593189  -0.22892548    24.466573 
18970000    296.89562   -946.23225   -511.05598    51.782747    24.466958 
18980000    298.80686    890.24613    212.84034   -21.566048    24.465062 
18990000    299.46988     107.7511   -1598.8302    162.00147     24.46484 
19000000    303.43858    -432.3627   -301.90186    30.590206     24.46528 
19010000     296.4723    938.44554    504.07493   -51.075392    24.465655 
19020000     297.9798    785.91854    1115.0577   -112.98323    24.466179 
19030000    298.50572    349.08301    269.20425    -27.27712    24.462213 
19040000    294.82862    -71.45441    139.61481    -14.14647    24.457266 
19050000    294.80528    529.52221   -82.790245    8.3887216    24.456837 
19060000    298.59336    566.54102   -240.97822    24.417118    24.455966 
19070000    300.73334    184.03868    61.415674   -6.2229432    24.456729 
19080000    301.95707   -453.47382   -1469.9978    148.94752    24.459308 
19090000    303.47599   -91.921404   -331.95844    33.635689    24.462193 
19100000    302.19515   -7.2133102   -781.19569    79.154653    24.462946 
19110000    296.12543    12.765141    125.78219    -12.74488    24.461483 
19120000    299.20667    505.11895    433.05963   -43.879767     24.46364 
19130000    293.28743   -67.391747   -183.38557    18.581543    24.464193 
19140000    296.83519    690.76235   -89.722715    9.0911541    24.459531 
19150000    298.22859    78.222776   -263.74552    26.724015     24.45614 
19160000    297.10016   -324.83669   -1023.4263    103.69867    24.453168 
19170000    301.34394   -330.81895    59.548351   -6.0337367    24.450209 
19180000    296.52697    721.12635   -209.20175    21.197368    24.452728 
19190000    293.75085     520.8198   -801.32013    81.193763     24.45598 
19200000    294.57912   -625.16718   -437.72559    44.352545    24.455631 
19210000     296.1848     679.7791    281.96041   -28.569638    24.453165 
19220000    296.83195    505.73461   -291.51049      29.5373    24.452737 
19230000    295.86961   -318.09669   -750.61793    76.056362    24.454963 
19240000    298.72686   -664.67127   -596.86746    60.477596    24.458527 
19250000     298.4918     653.0192   -182.94131    18.536528    24.461932 
19260000    298.99871   -177.31708   -517.56504    52.442278    24.465302 
19270000    299.01685   -717.25139   -274.13286    27.776512    24.473522 
19280000    299.81735     386.4751     915.6562   -92.778865    24.479188 
19290000    302.01362   -442.56783    308.03561   -31.211708    24.484648 
19300000    297.39383   -528.88522   -634.76968    64.318038    24.490783 
19310000     294.7139    264.16285   -686.51059    69.560685    24.498432 
19320000    296.87427     928.7528   -871.20117    88.274459    24.504134 
19330000    292.95287   -65.228867   -177.47091     17.98224    24.506166 
19340000    301.84441    526.71086   -839.50358      85.0627    24.508906 
19350000    300.92911   -119.59541   -411.78768    41.724386    24.510638 
19360000    298.52213   -480.66284   -354.13266    35.882492    24.512676 
19370000    298.41013   -228.17755    589.70945    -59.75231    24.516027 
19380000    300.07998    629.10107   -166.61803    16.882572    24.522041 
19390000    292.63399     642.4997   -1327.7239    134.53163    24.526552 
19400000    301.10939    970.97248   -384.77535    38.987363    24.527045 
19410000    295.85777    547.80006   -880.94899    89.262156    24.530265 
19420000    295.51023   -759.24038   -530.00254    53.702508    24.530757 
19430000    297.91876   -353.55119   -246.01019    24.926983    24.534003 
19440000    298.56474    163.34018   -649.42461    65.802948    24.538892 
19450000    297.35733    824.50883    104.15645   -10.553653    24.541936 
19460000    296.85875    -650.4455   -527.41716    53.440543    24.542814 
19470000    297.44998    688.00651   -504.36446    51.104729    24.542439 
19480000    299.90413   -69.980087    12.940241   -1.3111699    24.544816 
19490000    298.87111     921.4487    -151.3589    15.336441     24.54223 
19500000    297.01077   -465.08363   -190.89631    19.342568    24.541765 
19510000    295.01563      316.669   -58.601913    5.9378388    24.542428 
19520000    296.64069   -146.60732   -416.19579    42.171039    24.540777 
19530000    295.75796   -295.74495    341.46049   -34.598484    24.541162 
19540000    293.58255   -1078.1688    31.140408   -3.1553018    24.539594 
19550000    298.00867     215.7705   -508.75885     51.54999    24.542051 
19560000    298.49804    357.25724    -205.1644    20.788283    24.545302 
19570000    297.58962    83.215539   -651.36879    65.999943    24.545607 
19580000    294.71303    -643.3425    15.227467   -1.5429231    24.543097 
19590000    295.35787   -177.24504   -44.887499    4.5482259    24.535915 
19600000    296.57744    204.20339   -228.21821     23.12421    24.531824 
19610000    293.66996   -383.12321   -175.59911     17.79258    24.529309 
19620000    294.85183   -133.26422   -359.24829    36.400833    24.523566 
19630000    296.65102    62.617199   -484.94795    49.137351    24.519475 
19640000    295.43725    131.65943   -216.00498    21.886705     24.51582 
19650000    297.16272    7.7933004   -551.28094    55.858541    24.513858 
19660000    300.66832   -10.447995   -563.97212    57.144475    24.516508 
19670000    295.89348   -116.91106   -216.82245    21.969535    24.518213 
19680000    300.90702    655.28201   -345.70051    35.028104    24.516423 
19690000    295.59492    503.80602   -787.68752    79.812438    24.518989 
19700000    297.43832    290.87379    537.54401   -54.466647    24.515045 
19710000     296.2053   -4.6032071   -429.28168    43.496966    24.510304 
19720000    295.15303    814.04224    3.7535029  -0.38032368    24.508535 
19730000    303.23438   -129.71837   -744.48378    75.434819    24.503364 
19740000     300.8585   -259.58575   -432.09567    43.782094     24.50114 
19750000    299.23591    150.60294    1.9235061  -0.19489925    24.498867 
19760000    296.41401    120.54951   -31.913595     3.233645    24.497308 
19770000    294.47718    759.43893    1.5747616  -0.15956272    24.498991 
19780000    300.42171    864.70563   -531.96623    53.901478    24.502765 
19790000    299.55933    202.30151   -358.47371    36.322349    24.504016 
19800000    299.72572   -1196.4044   -315.02988    31.920403    24.505456 
19810000    296.16716    -46.13001   -710.03259    71.944052    24.505385 
19820000    294.50048     268.9296   -95.593376    9.6859988    24.510065 
19830000    300.78655   -535.53366   -91.889454     9.310699     24.51167 
19840000    296.49812    593.79965   -510.42389    51.718701    24.515337 
19850000    296.81847    645.53035   -482.06711     48.84545    24.519222 
19860000    298.42876   -140.19821   -573.68556    58.128689    24.524806 
19870000    295.80282   -996.59306     115.7088   -11.724194    24.528553 
19880000    297.14039    894.80572   -805.75152    81.642773     24.53271 
19890000    299.62248   -135.08737    19.853302   -2.0116358    24.534282 
19900000    300.13341   -13.903992    454.98516   -46.101371    24.539176 
19910000    294.14945    42.654833   -887.08079    89.883461    24.542336 
19920000    299.39415    96.431167    271.09221   -27.468418    24.547459 
19930000    302.98866   -512.91214    -188.4753     19.09726    24.550924 
19940000    295.89812    601.64447   -551.71012    55.902028    24.551914 
19950000     296.9266    78.711972    206.57662   -20.931376    24.556717 
19960000     294.0678   -774.97247   -245.55252    24.880609     24.55616 
19970000     297.3465     702.9661   -339.01381    34.350575    24.555831 
19980000    299.65734   -270.97765   -254.72455    25.809965    24.554735 
19990000    295.19949    490.58712    -437.6688    44.346791    24.553313 
20000000    302.23682    507.96268   -172.84266    17.513282    24.554686 
20010000    297.23577    592.43013    -178.1345    18.049478    24.553442 
20020000    297.60548    1065.0866   -688.27244    69.739205    24.554656 
20030000    297.22373   -659.50296   -613.87436    62.200819    24.552796 
20040000    302.37016    -23.58118    565.09182   -57.257929    24.549983 
20050000    296.83068     -32.5274   -344.82624    34.939519    24.549189 
20060000    298.54221   -215.97286   -301.06494    30.505405    24.544388 
20070000     298.3376   -636.92832    411.11533    -41.65626    24.541414 
20080000    297.99309    150.74826    407.69825   -41.310025    24.537132 
20090000    301.96468    142.88278   -329.70604    33.407464    24.534281 
20100000    302.13626    319.61748    668.47244    -67.73297    24.533933 
20110000    297.05422   -505.58552   -834.05467    84.510589    24.534909 
20120000    298.64386   -523.52169   -118.38097    11.994952    24.533961 
20130000    298.66004    324.96369   -821.22985    83.211115     24.53522 
20140000    297.77067   -368.59009   -1411.3176    143.00176    24.538172 
20150000    296.66288   -630.17498   -336.35814    34.081489    24.541361 
20160000    297.00002    298.76707    -1193.491    120.93048    24.545086 
20170000    297.21805    553.92233   -552.52829    55.984929    24.546815 
20180000    295.67751    694.76967   -170.40543     17.26633    24.550223 
20190000    297.13617   -315.71733   -564.88486    57.236958    24.553759 
20200000    299.43495    308.27446   -19.758573    2.0020374    24.554545 
20210000    298.42883   -302.90021    109.79879   -11.125362    24.558159 
20220000    298.08113   -486.58085   -1214.4167    123.05077    24.561169 
20230000     297.9198    620.04152   -1561.0783    158.17626    24.562639 
20240000    297.95845    174.41226   -579.88325     58.75667    24.562882 
20250000    300.68288   -282.04076   -461.24126     46.73527    24.565127 
20260000    303.09843    977.24585   -646.50352    65.506969    24.565073 
20270000    294.99291    1100.7307   -127.36713    12.905474    24.566761 
20280000    296.61537    1226.4477   -982.33824    99.535423     24.56509 
20290000    300.13744    -150.8538   -519.65695    52.654241    24.565143 
20300000    298.59797    643.82019     -691.092    70.024897    24.565073 
20310000    297.73555    1272.1294   -352.79512    35.746965    24.564953 
20320000    298.84554    299.97031   -953.98312     96.66234    24.563945 
20330000    299.24345    936.25792   -506.26351     51.29715    24.562677 
20340000    303.70541   -402.50675    103.91091   -10.528773    24.560684 
20350000    299.68981   -362.91786    293.64077   -29.753151    24.559342 
20360000    304.97707   -116.72125   -1498.0757    151.79252    24.561465 
20370000    300.22054    628.73432    329.13703    -33.34981    24.565107 
20380000    301.40605    128.07334    127.55157   -12.924163    24.567793 
20390000    297.80163    27.437304   -416.60089    42.212086    24.567169 
20400000    302.04922    -501.3344    62.046322   -6.2868435    24.566832 
20410000    295.09644    394.00361    436.99551    -44.27857    24.566688 
20420000    297.99593    656.83896    3.7397991  -0.37893515    24.569166 
20430000    296.53339    148.78731     235.3812       -23.85    24.568641 
20440000    296.21469   -340.59566    861.52905   -87.294431    24.567729 
20450000    296.68066    421.67835   -710.71467    72.013164    24.564283 
20460000    295.39477    320.13524   -106.92638    10.834316    24.564514 
20470000     301.2756    178.04173   -749.80461    75.973952    24.567905 
20480000    296.35234    99.027397   -996.67984    100.98858    24.569673 
20490000    298.14019   -460.06507   -644.14054    65.267541    24.569676 
20500000    301.96133   -396.13875   -303.78897    30.781417    24.576915 
20510000    296.33317    636.41689    65.080437   -6.5942753    24.586191 
20520000     303.3588    614.31871   -239.90826    24.308705    24.589888 
20530000    298.51789   -208.80116   -895.66114    90.752865    24.593106 
20540000    295.70296    484.94429   -515.73517    52.256866    24.594564 
20550000    297.38187   -430.42307   -644.72668    65.326931    24.594677 
20560000    296.47809   -152.01614    -1567.167     158.7932    24.598656 
20570000    295.74004   -112.51482   -664.70253    67.350983    24.601672 
20580000    298.47587    293.31049   -431.80115    43.752252    24.608383 
20590000    294.59174    175.09339   -216.20479    21.906951     24.61209 
20600000    298.35123    138.85155   -197.04699    19.965786    24.615549 
20610000    299.48747    209.09386   -484.80286     49.12265    24.616248 
20620000    299.54716   -520.93949   -913.72797    92.583486    24.618245 
20630000    298.38539    646.36157    180.79979   -18.319539    24.618266 
20640000    296.66718   -202.01331   -228.46213    23.148925    24.619997 
20650000    299.17789    352.27678    -857.7512     86.91164    24.619844 
20660000    296.11159     550.6404   -201.11727    20.378207    24.623545 
20670000    299.25566    -87.30121   -578.26075    58.592271    24.626459 
20680000    298.38545    148.03652   -593.59071    60.145579    24.629427 
20690000    299.40749   -159.71756    579.90536   -58.758911    24.630944 
20700000    299.52328    75.249551   -915.98444    92.812123    24.630877 
20710000    292.53972    371.75137   -280.55648    28.427386    24.633276 
20720000    300.23389   -571.20129    -502.7293    50.939047    24.636101 
20730000    298.64799     70.48387    -945.7158    95.824654    24.640393 
20740000    297.72741    33.257815   -204.57226    20.728284     24.64287 
20750000    302.80126    216.26609   -545.75044    55.298163    24.644494 
20760000    296.85545   -504.17929   -151.97639    15.399008    24.648048 
20770000    299.75418    1254.4505   -640.42702    64.891268    24.649028 
20780000    295.06851    815.84702   -163.33898    16.550322    24.648239 
20790000    295.34598   -925.18168   -299.81557    30.378812    24.647933 
20800000    300.67239    -31.56158    128.42494   -13.012657    24.645449 
20810000    298.90122   -825.90933    255.43966   -25.882423    24.647918 
20820000     296.2205   -355.16983   -484.54953    49.096981    24.651093 
20830000    294.01006    554.92477    147.39671   -14.934972    24.652608 
20840000     302.6547     108.2521    -252.3403    25.568381    24.656542 
20850000    291.88845    741.77643    670.68446   -67.957103    24.656945 
20860000    298.57368    980.76273   -278.02727    28.171113    24.659215 
20870000    298.65595    151.71621    28.415869    -2.879238    24.656641 
20880000    297.04449    54.755868    140.99715   -14.286536    24.656293 
20890000    301.20076    320.24054   -689.22414    69.835636    24.655077 
20900000    299.60238    1596.8443   -680.07001    68.908094    24.654837 
20910000    297.30201   -1138.1018   -244.75791    24.800095    24.656911 
20920000    294.29027     221.3654   -250.13856     25.34529    24.659799 
20930000    295.84266    328.19705   -496.07602    50.264903    24.663467 
20940000    295.65491    131.01368    271.41612   -27.501238    24.667673 
20950000      294.215    66.925917    611.43859   -61.954015    24.672729 
20960000    298.13249   -36.465794   -580.10097    58.778731    24.677148 
20970000    303.14979    941.59199   -1403.5064    142.21028    24.679978 
20980000    298.12748    360.70207    -669.2623    67.813002    24.685562 
20990000    298.35267    751.74151   -314.60871    31.877727    24.690848 
21000000    297.07735    203.15714   -832.36117    84.338996    24.694409 
21010000    298.40418    365.58879    60.248578   -6.1046872    24.697677 
21020000    299.64201   -23.855454     -528.604      53.5608    24.702783 
21030000    295.27348   -381.41582   -347.84842    35.245741    24.706216 
21040000    299.62744    -125.1297    798.30063   -80.887811    24.710515 
21050000    292.91722    506.87474    -86.91228    8.8063867     24.71696 
21060000      298.463    614.27138    93.755954    -9.499822    24.721818 
21070000    297.23973    874.53215   -76.497442    7.7511033    24.725095 
21080000    296.41308    25.570226    335.51477   -33.996034    24.729886 
21090000    299.84349   -277.64231   -417.48038    42.301199    24.733828 
21100000    297.42929    440.45511   -1116.9653    113.17651    24.739328 
21110000    297.64847   -815.32084    171.53445   -17.380728    24.744645 
21120000    300.87224   -732.61334    -457.1973    46.325516    24.748837 
21130000    296.92043    82.537944   -789.05265    79.950759    24.751283 
21140000    298.70427    632.13762    45.124535   -4.5722435    24.753831 
21150000    302.57849   0.15597474    354.77281   -35.947355    24.755088 
21160000     296.8341    1080.0752   -991.72841    100.48688    24.753788 
21170000    298.01134    -275.7649   -289.89164    29.373271    24.756412 
21180000    296.82026   -490.11722    234.78814   -23.789909    24.760681 
21190000    296.86287   -240.21691    -822.4962    83.339427    24.766254 
21200000    298.98844   -831.36651   -1103.2752    111.78936    24.768196 
21210000    299.74308   -17.628243   -1454.6359    147.39098    24.774182 
21220000    296.63645     329.5475    66.103202   -6.6979069    24.780005 
21230000    297.34118      708.321   -270.62362    27.420939    24.783534 
21240000    298.23127    1048.6441   -488.48898    49.496146    24.785916 
21250000    297.73093    -2.493067    99.474654   -10.079269     24.78829 
21260000     297.3912    34.713081     -127.571    12.926132    24.790111 
21270000     301.2674    111.26304    51.303771   -5.1983546    24.791886 
21280000      296.215    380.34373     39.71412   -4.0240332    24.794692 
21290000    294.65297    1191.3288   -1022.5985    103.61479    24.796416 
21300000    302.07652     768.7179   -1078.9192    109.32149    24.799854 
21310000    297.07622   -696.57235   -840.34613    85.148072    24.801591 
21320000    296.72956   -647.03011   -210.22648    21.301198    24.803562 
21330000    295.62977    166.53128   -356.85004     36.15783    24.804295 
21340000    298.54791    481.86824    -811.4035     82.21546     24.80495 
21350000    296.76169    1089.9107   -247.07457    25.034831    24.804317 
21360000    295.94154    393.53763     624.3423   -63.261484    24.806092 
21370000    301.04106    416.15101   -390.90219    39.608165    24.804495 
21380000    298.84296    701.22185   -208.36057    21.112135    24.803788 
21390000    300.58254    421.54143     -1477.23    149.68033    24.803525 
21400000    295.67176    92.382997   -267.02149    27.055952    24.808452 
21410000    298.47068   -250.11199   -351.14117    35.579379    24.809238 
21420000    296.82576   -59.124846   -274.69269    27.833237    24.812263 
21430000    297.11832    390.67047    826.78362    -83.77385     24.81416 
21440000    296.37129   -281.34317   -768.56706    77.875057    24.810862 
21450000    297.66667     112.7479   -37.401048    3.7896612    24.809883 
21460000    301.39807    274.00942    328.33952   -33.269002    24.808677 
21470000    295.29626   -532.14417   -740.21782    75.002571    24.811032 
21480000    296.39017     583.8822   -936.48207    94.889045    24.808946 
21490000    300.77459    1120.4952   -448.39183    45.433302    24.810531 
21500000    300.04117    195.53805    599.72755   -60.767394    24.810029 
21510000    298.72458   -744.09841    100.17273   -10.150002    24.809375 
21520000    299.86221      1620.26   -311.99219    31.612609    24.806816 
21530000    302.00372   -463.03206   -1.0857172   0.11001029    24.803576 
21540000     298.6003   -397.59131    844.09483   -85.527908    24.805214 
21550000    294.94411    1047.7982   -815.06141    82.586097    24.804819 
21560000    301.26828    434.11467   -893.21611    90.505122    24.807676 
21570000      297.587    428.18223   -798.75948    80.934305    24.811328 
21580000    302.39706   -275.80051    299.69521   -30.366617    24.814572 
21590000    293.73045    212.86448   -334.51843    33.895079    24.817573 
21600000    297.08082   -469.21246   -40.412981    4.0948453    24.821097 
21610000    299.83392     772.7493   0.23448162 -0.023758851    24.826389 
21620000    299.00411    18.659539   -263.79883    26.729416    24.829552 
21630000    300.16756    775.27364   -804.93043    81.559575    24.832514 
21640000    300.38564    173.89878   -516.44902    52.329197    24.836573 
21650000    296.62073   -553.83078   -539.81274    54.696526    24.841752 
21660000    295.31733    144.80745   -244.81816      24.8062    24.845881 
21670000    297.12096    537.66764   -93.061686    9.4294753    24.846261 
21680000    298.01219    50.050164    -1755.189    177.84452     24.84744 
21690000    299.48595    114.74888    445.28352   -45.118352    24.844696 
21700000    295.20661    165.78875    -418.1205     42.36606    24.844366 
21710000    299.51461    930.55679   -375.02369    37.999275    24.842726 
21720000    299.14784   -892.68559   -667.85516    67.670425    24.837962 
21730000    298.84026    418.58541     481.4021   -48.778067    24.837856 
21740000    297.87541    316.94381   -405.95862    41.133757    24.840071 
21750000     295.1958   -303.23021   -619.35649    62.756297    24.843762 
21760000    296.27327    468.61361   -259.07078    26.250347    24.846992 
21770000    298.58013    738.71317   -710.37367    71.978612    24.850624 
21780000    296.28312    126.26893     823.5872   -83.449973    24.854213 
21790000     290.8732     121.5779   -269.21979    27.278695    24.856779 
21800000    295.23614    478.38362   -363.64527    36.846357    24.859418 
21810000    293.92518   -428.44834   -637.42588    64.587177    24.858799 
21820000     299.2798    273.08088   -57.642126    5.8405885    24.861144 
21830000    296.64803    236.63575   -331.94589    33.634417    24.865371 
21840000    296.47247    25.167739   -406.31448    41.169814    24.868785 
21850000    296.32708    415.31434    200.04409   -20.269467    24.871362 
21860000    294.89543    682.27551   -140.30987    14.216897    24.872162 
21870000    297.52888    713.16026    -1530.149    155.04235    24.873772 
21880000    296.14669    708.26562   -70.259207    7.1190142    24.877513 
21890000     294.5119   -1509.6805   -248.67435    25.196928    24.882002 
21900000    298.48467   -45.176622   -486.58506    49.303231    24.882176 
21910000    296.21553   -672.92479   -572.06729    57.964718    24.883881 
21920000    297.79452   0.64490906    379.45498   -38.448276    24.883543 
21930000    294.84133    162.46042   -390.66914    39.584551    24.884641 
21940000     297.1462    61.723912    -536.1891    54.329361    24.887106 
21950000    298.62899   -1699.3316    235.56772   -23.868899    24.889444 
21960000    297.59659    811.77916   -280.66092    28.437968    24.887858 
21970000    298.35766   -107.03152   -52.277895    5.2970578      24.8868 
21980000    298.66357    193.71182   -341.95299    34.648387    24.886751 
21990000    300.50291    131.96246   -267.38372    27.092655    24.884276 
22000000    299.47384   -269.59384    321.12114     -32.5376    24.882254 
22010000    298.21733     680.8942   -98.139758     9.944011    24.883049 
22020000    297.06152   -29.699588   -748.02223    75.793352    24.884236 
22030000      297.689    818.30662   -204.84701    20.756123     24.88327 
22040000    294.99231    123.65438    -417.8344    42.337071    24.882594 
22050000    297.89648   -243.24869    98.138917   -9.9439257    24.884998 
22060000    298.08424    289.90579    274.74664   -27.838703    24.883467 
22070000    297.85657    561.35699   -672.31767    68.122588    24.887125 
22080000     298.7691   -90.035535   -863.08239    87.451823    24.890209 
22090000    299.38749    579.51259   -377.93952    38.294722     24.89422 
22100000    297.34237   -308.96777    10.336221   -1.0473176    24.897949 
22110000    298.86513    198.57049    230.78742   -23.384535    24.899036 
22120000    298.39479    115.52969    125.81439   -12.748143    24.903273 
22130000    297.27855    469.93012   -631.99587    64.036982    24.904506 
22140000    297.10781    134.49176   -12.662569    1.2830348    24.902825 
22150000    300.59899   -239.08548    542.67503   -54.986548    24.901429 
22160000    299.64131    1258.2534    348.25702   -35.287142    24.903381 
22170000    297.46678    111.73781   -299.13969    30.310329     24.90607 
22180000    295.49784    1208.8524   -744.45013     75.43141    24.909473 
22190000    299.75796    1439.9016    111.51569   -11.299328    24.912088 
22200000    300.39045     89.23273   -1068.3319    108.24873    24.914931 
22210000    297.97237   -10.891996    106.34767   -10.775678    24.916122 
22220000    296.73787    710.38325    165.74361   -16.793972    24.916672 
22230000    296.09201   -120.40738   -412.02256    41.748186    24.919413 
22240000    300.08363   -30.770477   -627.01323    63.532116    24.921322 
22250000     295.7558    932.10905    142.39828   -14.428506    24.921755 
22260000    300.37952   -595.99474   -167.96391    17.018943    24.923296 
22270000    294.99521    836.22718   -324.74011    32.904292     24.92428 
22280000    294.59143     609.1227   -1168.4584    118.39405    24.925637 
22290000    298.94231    32.434039   -480.91297    48.728507    24.926385 
22300000    296.84305    894.80404    196.71931   -19.932585    24.927081 
22310000    299.58105    757.20557   -721.68673    73.124908    24.925929 
22320000    300.15449    1.5454126   -29.626472    3.0019023    24.925989 
22330000    298.17801   -1187.4814   -101.80732    10.315627    24.926473 
22340000    297.74956   -213.25291    -656.8089    66.551161    24.924603 
22350000    298.51657    82.572666    23.701698   -2.4015746    24.924118 
22360000    300.24936   -279.51764   -685.59932    69.468352    24.925371 
22370000    298.56037    139.69665   -769.37474    77.956896    24.926826 
22380000    297.44247   -122.00678   -659.60434    66.834409    24.928094 
22390000    294.62987     1168.662    39.046643   -3.9564011    24.929022 
22400000    297.47747   -354.71029   -364.96497    36.980076    24.928627 
22410000    297.16948   -303.71649   -386.98249    39.211001    24.927258 
22420000    297.61059   -1225.5027   -30.174773    3.0574589    24.926057 
22430000    297.95637   -257.06713    248.36278   -25.165358    24.927735 
22440000    297.90268    1452.8471   -453.89497    45.990908    24.926462 
22450000    296.11108   -249.22913   -1020.3992    103.39195    24.927813 
22460000    295.62962    45.235447    365.04171   -36.987851     24.92901 
22470000    296.30101    403.42367     34.28458    -3.473885    24.930271 
22480000    297.26732    550.52141   -494.92086    50.147856    24.933684 
22490000    296.30449    334.52247    -781.9109    79.227122    24.936098 
22500000    297.11828   -464.63398   -346.95367     35.15508    24.935689 
22510000     295.9826   -620.55841   -1079.8597    109.41678    24.936374 
22520000    296.24396    362.91747   -589.06003    59.686508    24.935986 
22530000    297.55974    406.44129   -473.77382    48.005132    24.934358 
22540000    296.47009    741.69284    198.44507   -20.107446    24.935128 
22550000    292.79584    112.48401   -588.81171    59.661347    24.937633 
22560000    295.29456    818.11304    6.8468411  -0.69375618     24.93728 
22570000    300.58695   -106.60315   -789.95162    80.041848    24.942134 
22580000    297.72069   -293.72422   -384.76959    38.986778    24.942693 
22590000    302.42848    1158.7652    465.98465   -47.215894    24.942712 
22600000    293.19795    3.0885182   -694.58647    70.378974    24.938891 
22610000    296.30143   -49.501304    -449.9072    45.586847    24.938048 
22620000    297.77346   -320.08261   -159.39675    16.150876    24.936605 
22630000    297.37762    322.69533    270.64365   -27.422967    24.936536 
22640000    300.36156   -835.43648    231.69835   -23.476835    24.935349 
22650000    302.16876   -259.40625   -227.57253    23.058786    24.935334 
22660000    295.55607    -177.5205   -1253.9744    127.05896    24.933731 
22670000     297.5458    1165.6881   -810.18865    82.092365    24.932129 
22680000    298.94857    207.55222   -153.45614    15.548944    24.929773 
22690000    295.30576    229.42824  0.095440354 -0.0096704939    24.927705 
22700000    296.28342     777.4174    46.815943   -4.7436254    24.926709 
22710000     301.7859   -655.87384   -78.905924    7.9951427    24.926215 
22720000    297.44798    258.54369    8.3539723  -0.84646624    24.925278 
22730000    296.33075   -187.17836    63.955519   -6.4802929    24.926387 
22740000    297.86464    101.85661    333.90446   -33.832869    24.925864 
22750000    294.55831   -775.88667   -372.18594     37.71174    24.925289 
22760000    301.46081    332.54271   -1221.0873    123.72667    24.926454 
22770000    297.62878   -203.28956    153.73527   -15.577226    24.923404 
22780000    297.02298    17.366864    966.69195   -97.950062    24.925179 
22790000    296.34432   -58.368307   -638.36166    64.681995    24.922837 
22800000    298.77383    838.82177   -674.02815    68.295902    24.923777 
22810000    297.58477   -42.883622   -902.40424     91.43611    24.924307 
22820000    297.01425   -750.20857   -103.22541    10.459315    24.925385 
22830000    295.96173    500.80657   -1271.5616    128.84098    24.926628 
22840000    294.80355   -1121.0689   -562.98601    57.044558    24.926892 
22850000    298.29082    696.56158   -14.370475    1.4560884     24.92783 
22860000    296.63812    322.22127   -887.67566    89.943736    24.930859 
22870000     297.2179    195.38322   -114.62951    11.614835    24.931519 
22880000    297.59282    225.38899   -674.15093    68.308343    24.931736 
22890000    300.59457    614.90304     21.43834   -2.1722398    24.930648 
22900000     300.0969   -310.64528     263.8403   -26.733619    24.929897 
22910000    299.65884   -1513.4794    -866.6514    87.813454    24.929297 
22920000     299.1981   -1000.6178   -372.03398    37.696343    24.929906 
22930000    295.32528   -286.17659    435.79313   -44.156739    24.932603 
22940000      298.206   -254.42715   -842.78319    85.395007    24.936391 
22950000    297.86013    822.09697   -583.78962    59.152483    24.939292 
22960000    299.57819    565.09008   -991.32904    100.44641    24.940695 
22970000    300.58778   -248.39427   -78.435964    7.9475241    24.939622 
22980000     297.8728   -1344.4424    294.28143   -29.818066    24.939289 
22990000    297.71363    -382.9838    183.95132   -18.638867    24.939013 
23000000    292.05807   -325.95427    248.90448   -25.220246    24.939325 
23010000    297.07907    914.60072   -455.92787    46.196892    24.938229 
23020000    295.65741   -192.35463    513.83848   -52.064684    24.938004 
23030000    297.36136   -765.88769   -310.96344    31.508371    24.934113 
23040000    299.52931   -358.17529   -448.41796     45.43595    24.929704 
23050000    295.86324   -51.800961    -1219.111    123.52642    24.928444 
23060000    293.50523   -196.50188   -792.73664     80.32404    24.928176 
23070000     298.6764    606.59576    349.82973   -35.446498    24.927647 
23080000    295.76801     -526.413    502.67824   -50.933873    24.927446 
23090000    302.77492   -177.47593    621.80332   -63.004221    24.930309 
23100000    298.56061   -218.64538    188.50751   -19.100523    24.931616 
23110000    300.23804    834.85778   -815.20532    82.600679    24.930137 
23120000    295.68153    485.21026   -405.19713      41.0566    24.928488 
23130000    300.48298    1289.5805   -325.34292    32.965371    24.926053 
23140000    297.33065    208.29004   -326.38857    33.071322     24.92353 
23150000    297.31864    214.55334    721.07625   -73.063051    24.921944 
23160000    298.85843    433.36505     46.65285      -4.7271     24.92113 
23170000    298.27684    722.61157    85.060311    -8.618736    24.916312 
23180000    294.68973    158.35631   -67.908682    6.8808472    24.915709 
23190000    297.75696   -440.45695   -568.74333    57.627918    24.914292 
23200000    299.10331    537.74006    784.99511   -79.539629    24.910254 
23210000    295.97458    382.48804   -463.98957    47.013743    24.910113 
23220000    298.13055    177.29831   -715.19644    72.467279    24.909783 
23230000    302.12998    111.39201   -318.43288    32.265212     24.91066 
23240000    296.99145   -401.33398   -952.91327    96.553937    24.910079 
23250000     299.5878    208.83891    149.02511    -15.09997    24.908338 
23260000    299.70255   -522.88058   -67.138524    6.8028109    24.906315 
23270000    295.23431   -25.061708   -306.28336    31.034161    24.907205 
23280000    297.42223   -137.17832    206.90143   -20.964288    24.905733 
23290000    297.17475     512.6938    -1241.839    125.82933    24.904911 
23300000    301.70166   -592.71228    -274.2314    27.786497    24.907958 
23310000    300.37867    837.52234   -80.305958    8.1370012    24.910372 
23320000    294.30182   -105.12353   -526.77462    53.375438    24.910288 
23330000    298.17726    -251.4855    70.586624   -7.1521896    24.909164 
23340000    297.47089    15.075644    787.35784   -79.779034    24.908138 
23350000    297.20969    312.96585   -1234.4116    125.07676    24.906293 
23360000    301.17132   -125.28889   -92.963472    9.4195238     24.90908 
23370000    301.69358   -337.82774    -768.9444    77.913291    24.911694 
23380000    296.97447    258.64673   -497.16757    50.375504    24.915643 
23390000    299.55128    114.40652   -929.16314    94.147455    24.917624 
23400000    301.82933    7.0175008    203.96484   -20.666738    24.921387 
23410000    302.00845     343.2473   -272.38285    27.599192    24.924644 
23420000    296.64323    789.03675   -12.570743    1.2737306    24.927329 
23430000    297.36414    -245.7564    592.13166    -59.99774    24.928286 
23440000    294.59305    79.191643    154.11571   -15.615775    24.927596 
23450000    296.52361   -76.102495   -195.89274    19.848832    24.929748 
23460000    298.65127     104.4264   -1044.8311    105.86751    24.931581 
23470000    300.19456    1342.6244   -1549.0198    156.95443     24.93371 
23480000    300.99788    1780.6693   -281.15124     28.48765    24.935133 
23490000    298.84719   -293.88178    172.23792   -17.452007    24.937406 
23500000    295.74873    682.59986   -624.40353    63.267687    24.941419 
23510000    296.10791    502.28358   -466.40921    47.258914     24.94545 
23520000    297.65203    722.32143   -134.30612    13.608567    24.948075 
23530000    300.66045    1342.3013   -929.63694    94.195463    24.946967 
23540000    300.59109   -808.79824   -73.020895    7.3988422    24.946612 
23550000     296.5823    941.47692   -846.73259    85.795179    24.949139 
23560000    297.92562   -225.33075    532.88353   -53.994424    24.951062 
23570000     295.2045    432.80315    362.20752   -36.700677    24.949348 
23580000    297.20186     -629.808   -481.02361    48.739717    24.945624 
23590000    298.76926   -182.68123    1238.0881   -125.44927    24.943747 
23600000    299.61346   -959.23257    307.52554   -31.160025    24.945459 
23610000    296.46783    -940.9522    3.2483562  -0.32913969    24.947608 
23620000    299.72959    360.08654      -221.86    22.479965    24.948242 
23630000    298.30152    155.89688   -354.16258    35.885524    24.949999 
23640000    298.50653   -402.92355    280.26421   -28.397771    24.952051 
23650000    298.53837   -934.41926    -512.0204    51.880467    24.956556 
23660000    297.03135   -320.68885   -182.89155    18.531486    24.961937 
23670000    297.17533    368.63095   -328.06605    33.241293    24.962049 
23680000    295.97726   -332.16569   -335.54033    33.998624    24.961445 
23690000    297.04743   -216.72395   -703.36053    71.268005    24.960604 
23700000     298.7381    101.89363   -673.99563    68.292607    24.959149 
23710000    297.61663    388.52564    89.882683   -9.1073629    24.955973 
23720000    299.03811   -107.49861   -963.72513    97.649449    24.956722 
23730000    296.37638    786.34618   -172.78016    17.506949    24.958619 
23740000    294.36603   -49.285269   -356.96348    36.169325    24.958779 
23750000    299.32504   -288.91306   -1320.4745    133.79708    24.961922 
23760000    299.01079   -479.44182    -251.7388    25.507434    24.962436 
23770000    302.16795   -620.55293   -300.33311    30.431252    24.957698 
23780000    295.80985   -241.84931    84.619844   -8.5741057    24.956703 
23790000    299.57058    152.32922   -366.98519    37.184774    24.956038 
23800000    296.10114    651.42527   -1125.3645    114.02756    24.950884 
23810000    296.65506    125.52147    -94.75057    9.6006015    24.951254 
23820000    299.15262    164.72933    685.96527   -69.505431    24.952248 
23830000    299.08787    918.54795   -1319.9022    133.73909    24.952391 
23840000    296.06455   -1124.2408    269.16854   -27.273502    24.951295 
23850000    297.38486   -1218.9235    53.134306   -5.3838336    24.950437 
23860000    289.53126   -601.62556   -197.12755    19.973949    24.950681 
23870000    296.62588   -360.84429   -100.32456    10.165386    24.952263 
23880000    297.50172     661.9954   -658.75463    66.748313     24.95615 
23890000    295.24381   -512.99611   -416.83008    42.235308    24.955939 
23900000    297.15093   -519.60292    980.59645   -99.358935    24.952809 
23910000    296.09205    39.800406   -270.89213    27.448145    24.952615 
23920000    295.57524   -409.88372   -772.25078     78.24831    24.951108 
23930000    295.36305   -176.73486   -265.33493    26.885062    24.950668 
23940000    293.84338   -250.88151   -860.99141    87.239955    24.948994 
23950000    294.29817    176.08004   -214.18207    21.701998    24.948336 
23960000    298.26021   -251.16621   -247.67997    25.096173    24.949791 
23970000    299.79164    832.36019   -49.718259    5.0377026    24.949784 
23980000    295.35398     853.0513    439.69584   -44.552181    24.948168 
23990000    299.42792   -675.73427   -82.850546    8.3948316    24.946703 
24000000    295.12068    347.74863    18.535374   -1.8780967    24.949378 
24010000    295.99431    5.5725994   -607.13443    61.517896    24.950298 
24020000    295.72769    183.31529   -906.42245    91.843255    24.949847 
24030000    298.83345   -758.10555   -255.85304    25.924309    24.948948 
24040000    297.04965    39.003168   -293.47715    29.736573    24.946481 
24050000    299.51747    880.11531    -541.1979    54.836877    24.946129 
24060000    299.08119     308.6403    247.59754   -25.087821    24.947748 
24070000    295.93908    196.45589     68.52803   -6.9436027    24.948105 
24080000    300.11818    565.98915   -535.11188    54.220212    24.948527 
24090000    294.70492   -615.82192   -588.91183    59.671492    24.949178 
24100000    294.14233    427.11299   -198.61819    20.124988    24.950388 
24110000    297.42284   -54.985338   -747.85333    75.776239    24.951947 
24120000    296.86778    1058.0065    79.995729   -8.1055672     24.95359 
24130000    295.69519    202.26245     -901.482    91.342663    24.954683 
24140000    298.75824   -704.84517   -207.59473    21.034536    24.954546 
24150000    297.17825   -246.27198    510.84494   -51.761363    24.956698 
24160000    299.03465   -234.05897   -559.88124    56.729966    24.955598 
24170000     295.7077   -13.787046   -930.93988    94.327483    24.956377 
24180000    293.48299    470.69329    65.058923   -6.5920954    24.955556 
24190000    296.38972     189.0291    345.50034   -35.007822     24.95431 
24200000    298.52671   -867.98574    190.28776   -19.280907    24.951983 
24210000    296.96307     821.4443   -546.35961    55.359888    24.947151 
24220000    301.85036   -390.04099   -562.49275    56.994578     24.94606 
24230000    298.21943   -126.39668   -233.02408    23.611165     24.94573 
24240000    294.26602     656.4712    367.36522   -37.223281    24.945566 
24250000     296.1931   -198.00409    262.16137   -26.563501    24.944718 
24260000    297.12607    555.70532   -194.62061    19.719933    24.944065 
24270000    295.70581    421.63198   -228.25119    23.127551    24.942712 
24280000    294.72323    13.391561   -107.28352    10.870503    24.940717 
24290000    298.41019   -24.651511   -1205.4259    122.13978    24.940174 
24300000     302.5266    371.23542   -313.92289    31.808237    24.940374 
24310000    296.56053   -196.21063    -358.0066    36.275019    24.940912 
24320000    294.96646    248.65923    464.88064   -47.104031    24.939432 
24330000    301.62264   -648.74304    -363.9503    36.877264    24.938434 
24340000    294.36338    33.290873   -545.62654    55.285609    24.940034 
24350000    298.27322    35.617521   -502.37141    50.902784    24.945287 
24360000    298.50163   -2.4628945   -856.27172    86.761732    24.949542 
24370000    296.90337    219.86307    116.38933   -11.793149    24.948962 
24380000    294.05882   -230.03875    542.83655   -55.002914     24.94905 
24390000    298.52431     78.42615   -19.459282    1.9717117    24.947373 
24400000    298.16601   -385.74626     170.4751    -17.27339    24.944224 
24410000    295.33243   -122.28535   -458.97006    46.505142    24.940958 
24420000    298.83778    207.99013    608.50427   -61.656695    24.940062 
24430000    296.72255    33.605297   -677.92025    68.690269    24.939081 
24440000    300.65598    93.065669    139.90411   -14.175784    24.937464 
24450000    296.08984    256.28897     722.3219   -73.189267    24.935649 
24460000    301.59105   -402.39787    524.81373   -53.176752     24.93333 
24470000    297.36901    581.27692    37.630941    -3.812955    24.932726 
24480000    302.29964    664.40124     271.0421    -27.46334    24.932091 
24490000    295.23016   -343.29917    175.14935   -17.747008     24.93278 
24500000    299.98374   -25.266486    -633.2549    64.164552    24.929723 
24510000    292.03168    -357.2741   -916.94082    92.909028    24.927741 
24520000    299.30815   -322.68622   -4.0132618   0.40664375    24.922773 
24530000    293.94311   -228.09862   -1064.6647    107.87715    24.920824 
24540000    299.84761    863.09002    224.74659   -22.772448    24.918972 
24550000    299.18145    734.86669   -505.62337    51.232287     24.91413 
24560000    298.99305   -178.34625   -227.23774    23.024864    24.912506 
24570000    301.36545   -87.670287   -866.01531    87.749001     24.90922 
24580000    297.86168   -75.005733   -98.212503    9.9513818    24.907355 
24590000    301.92804    420.82261    574.57946   -58.219264    24.905711 
24600000    297.09334   -201.15724    532.54942    -53.96057    24.906567 
24610000    300.19496   -287.98608   -101.89153    10.324159    24.905662 
24620000    294.87679    553.65422    632.45595   -64.083599    24.905232 
24630000    296.07843    625.84229     -65.1112    6.5973923    24.904849 
24640000    300.59986   -674.77225   -671.79149    68.069273    24.904382 
24650000    295.47296   -629.25132   -21.536785    2.1822147    24.903376 
24660000    302.02477    164.97523    516.90623   -52.375524    24.901049 
24670000    297.99923   -196.65209    -528.8105    53.581724     24.89812 
24680000    298.88606    1241.4339    223.93244   -22.689955    24.896159 
24690000    300.05158    1452.5901    550.32954    -55.76214    24.895598 
24700000    297.13798    210.76524    -641.2046    64.970056    24.894333 
24710000    297.89442    358.21507   -499.35078    50.596718    24.893629 
24720000    295.28529    129.07454    199.09184   -20.172981    24.895519 
24730000    301.00473   -376.50982   -219.93311    22.284722    24.895574 
24740000    294.69594    927.70849   -144.76506    14.668319    24.897768 
24750000    297.45102   -167.19614    -797.9652    80.853824    24.898358 
24760000    298.75173    -214.9452   -567.93781    57.546299    24.899897 
24770000    297.18184   -33.764242    69.418439   -7.0338233    24.899267 
24780000    300.12899   -397.52817    673.38818   -68.231057    24.897091 
24790000    295.67258   -538.99591   -133.26539    13.503115    24.894278 
24800000    300.85905    1384.9363   -808.93523    81.965362    24.892421 
24810000    298.85182     129.5319   -1188.4683    120.42155    24.890507 
24820000     299.3637    218.29012    850.84879   -86.212253    24.891409 
24830000    295.66781    -276.9342   -283.33732    28.709154    24.891791 
24840000    295.52906    397.31498    58.213277   -5.8984603    24.891822 
24850000    296.64873   -51.805618   -152.83047    15.485548    24.895683 
24860000    298.31457    669.46524   -493.78404    50.032668     24.89955 
24870000    298.00084    646.08223   -42.746371    4.3312761    24.900367 
24880000    304.15405   -383.22945   -447.49469      45.3424    24.901589 
24890000    299.25582    524.70067    103.39034   -10.476026    24.902233 
24900000    300.87714    463.02708   -124.12676    12.577144    24.901189 
24910000    300.50848    615.47455    648.43064   -65.702234    24.898324 
24920000    299.44506    -123.4622    88.126647   -8.9294325    24.894546 
24930000    297.66076   -304.71577    529.89387   -53.691496    24.891587 
24940000    300.35007   -473.78437   -59.291856    6.0077473    24.891118 
24950000    300.72237    276.17982   -815.82783    82.663755    24.890636 
24960000     291.9269    342.05796    993.95853   -100.71285    24.890798 
24970000     298.2966   -837.16158   -58.266344    5.9038373    24.890563 
24980000     299.3753    335.82543    44.683185   -4.5275237    24.889413 
24990000    298.22938    177.14868   -411.89279    41.735037    24.888339 
25000000    296.92209    32.526408   -435.00735     44.07712    24.887668 
25010000     296.3664    -1057.735   -840.30726    85.144133    24.884713 
25020000     297.7996    444.12255    63.322191    -6.416121    24.880953 
25030000    302.08415   -401.61937   -338.77769     34.32665     24.88024 
25040000    298.83596    91.327938   -725.43599    73.504802    24.877404 
25050000    299.67777   -178.64256    348.34929   -35.296491    24.874241 
25060000    303.02986    507.36511    322.95397   -32.723311    24.874142 
25070000    295.98401    1757.4225   -315.00389    31.917769    24.875297 
25080000    295.83647   -430.11745   -964.24853    97.702482    24.875876 
25090000    297.74442    306.01625   -1078.9788    109.32753    24.876885 
25100000    293.11864    901.43898   -677.83422    68.681552    24.878657 
25110000     297.7409    -229.6194   -1102.7797    111.73916    24.878009 
25120000    299.37025    138.83045    77.805138   -7.8836056    24.876101 
25130000    295.76615   -89.967279   -331.57803    33.597144    24.872941 
25140000    301.06298    429.69926    455.52058   -46.155623    24.872651 
25150000    296.97801    495.01225     524.0746   -53.101859    24.872597 
25160000    295.71463    194.39418   -390.37284    39.554528    24.874736 
25170000    295.85658    81.184061   -547.09181    55.434078    24.874426 
25180000    296.43236    62.337116    741.88117    -75.17111     24.87325 
25190000     297.4173    246.36512   -437.27468    44.306857    24.871907 
25200000    300.64481    585.24326    319.10772    -32.33359    24.869406 
25210000    299.61204    713.29292   -375.73906     38.07176    24.867172 
25220000    296.15434    291.51136   -363.87455    36.869589    24.865302 
25230000    299.45253   -304.43435   -95.701641    9.6969688    24.865606 
25240000    299.28025    764.08696    737.63762   -74.741132    24.866477 
25250000    301.68637   -92.982533   -815.09671    82.589674    24.866861 
25260000    298.39731    576.56962   -514.62034    52.143906    24.867635 
25270000     297.5165   -94.529519   -140.43938     14.23002    24.867489 
25280000    296.54244   -882.21485   -194.35843    19.693368    24.868459 
25290000    297.12486    170.45512   -223.78761     22.67528    24.869331 
25300000    299.44204    763.20791    285.22924   -28.900853    24.870022 
25310000    297.61527    271.36447   -368.19902    37.307766     24.86951 
25320000    293.54348    180.51053    602.42007   -61.040214    24.869329 
25330000    298.62104    -174.2211   -39.524557    4.0048258    24.868519 
25340000    294.32285    614.57135   -89.452444    9.0637689    24.870152 
25350000    301.14829    596.75926   -312.30598    31.644403    24.871426 
25360000    301.39863    276.80937   -610.90546    61.899995    24.874234 
25370000    297.01063     953.8894   -513.95694    52.076687    24.876379 
25380000    296.39505     774.6125   -214.46139      21.7303    24.876519 
25390000    298.89092   -382.43767     202.9842   -20.567374    24.875983 
25400000    303.18646    528.82481   -662.02422    67.079604    24.877069 
25410000    297.37519   -449.22979   -491.68433    49.819915    24.878479 
25420000    295.18527    1282.1833    8.6152238  -0.87293755    24.878567 
25430000    300.52896    377.02629   -305.59876    30.964795    24.878986 
25440000    299.46342    123.38726    436.01908   -44.179633    24.881165 
25450000    294.47195    594.02181   -488.11483    49.458235    24.882752 
25460000    294.19008    736.11956   -388.04297    39.318454     24.88332 
25470000     298.5571    418.38729    89.462945   -9.0648329    24.883854 
25480000    297.51906     537.8464    460.84888   -46.695512    24.882979 
25490000     299.0221    1054.4572   -510.51516    51.727948     24.88671 
25500000    298.35346    1002.0451   -453.27015    45.927598    24.883435 
25510000    299.98242    817.19624    52.176618   -5.2867958     24.88132 
25520000    302.58663    506.28606    679.17122   -68.817024    24.879658 
25530000    296.16681    -94.01366    128.72504   -13.043064    24.878159 
25540000    299.94331    568.99651   -48.992361     4.964151    24.877125 
25550000    296.05297   -52.429859      993.173   -100.63325    24.878429 
25560000    296.04069   -468.99012    81.922994   -8.3008474    24.877247 
25570000    299.10665    709.96115   -128.53573    13.023883    24.877827 
25580000    301.99192   -75.683141   -245.77545    24.903198    24.880036 
25590000     298.7967   -300.12475   -1212.0423    122.81019    24.879754 
25600000    296.66333   -585.92421   -631.62865    63.999773    24.879692 
25610000    297.35146    241.81724   -1061.3339    107.53966    24.882876 
25620000      298.137    229.12792    -481.6141    48.799549    24.886966 
25630000     299.3704    138.73618   -749.39939    75.932894    24.887448 
25640000    295.36019   -418.67527    -22.83204    2.3134565    24.890288 
25650000    300.82977   -234.12475   -1150.7949    116.60429    24.891999 
25660000    292.93805     227.3522   -522.04775    52.896488    24.892015 
25670000    297.51741    1075.6959    164.68354   -16.686559    24.893435 
25680000    300.18418   -753.14344   -250.11369     25.34277    24.891782 
25690000    298.68774   -195.78207   -981.37863     99.43819    24.892458 
25700000    294.87599    552.80109   -644.97797    65.352393    24.892432 
25710000    297.77111    399.73808   -471.48556    47.773274    24.895792 
25720000    299.76622    169.95104   -123.02719     12.46573    24.894127 
25730000    301.26415    31.755083   -958.71972    97.142276    24.892257 
25740000    295.76756   -486.66504    169.14881   -17.139003    24.890366 
25750000    298.56355    484.95949   -83.359462    8.4463975    24.889788 
25760000    301.59406    1078.9668   -1424.6916    144.35687    24.891415 
25770000    301.22465    760.20217    324.34808   -32.864569    24.892754 
25780000    294.20541    695.10886   -590.64834    59.847443    24.893156 
25790000    296.49539    217.26399   -189.98615    19.250347    24.894023 
25800000    293.63512    200.95585   -604.76962    61.278282    24.896792 
25810000    295.33334   -261.81666   -1181.7751    119.74336    24.898326 
25820000    295.84509    612.76746    93.017387   -9.4249868    24.902845 
25830000    296.95616   -844.66142   -74.553933    7.5541773    24.904403 
25840000     296.2799    86.334831   -207.71146    21.046364    24.908917 
25850000     297.6525   -638.20676   -271.80119    27.540256    24.911748 
25860000    297.42353   -16.490948    211.71542   -21.452065    24.913356 
25870000     295.0434    269.46738    347.58787   -35.219341    24.915465 
25880000    298.84555    126.06393   -583.59553    59.132817    24.916694 
25890000    294.53961    108.09453     492.6137   -49.914083    24.915231 
25900000    298.23827    186.92512   -455.54691     46.15829    24.914834 
25910000    303.02575    -270.2948   -29.582474    2.9974442    24.912281 
25920000    295.09665   -963.52106   -1096.6056    111.11356    24.911519 
25930000    300.32624   -23.128449    380.99913   -38.604737     24.90876 
25940000    298.61902    1937.5181   -351.77282    35.643381    24.911065 
25950000     297.5151    529.00107    75.056261   -7.6050757    24.910345 
25960000     294.5126    167.65009    286.12122   -28.991233    24.911074 
25970000    299.09174    1780.1028   -530.14464    53.716906    24.912399 
25980000    296.35275   -474.98347    -116.3101    11.785121    24.913226 
25990000    301.77991    -22.75907   -595.86919    60.376445     24.91135 
26000000    300.37462    -393.3534   -593.69693    60.156341    24.912334 
26010000    300.62735    171.27403   -1017.7445    103.12296    24.912161 
26020000    299.27787    341.61652   -158.76574    16.086939    24.911041 
26030000     296.5803    121.49978   -961.84883    97.459332    24.910416 
26040000     296.4596   -148.37904   -826.41719    83.736722    24.908403 
26050000    295.58029    438.70045   -234.62902    23.773785     24.90674 
26060000    296.92646   -526.06893    550.94013   -55.824008    24.904904 
26070000    296.50881    728.14126   -303.30999    30.732885    24.904192 
26080000    303.38245    137.63963    717.17477   -72.667734    24.902732 
26090000    294.57703   -375.59002    581.21811   -58.891925    24.902706 
26100000    301.23431    538.56482   -178.73961    18.110791    24.901254 
26110000    296.46624    121.71637    6.0069766   -0.6086569    24.900509 
26120000    300.43395    562.52452   -805.54317    81.621662    24.899476 
26130000    297.70924   -929.13628   -459.76792    46.585984    24.896167 
26140000    295.56097   -1128.7289   -659.08023    66.781304    24.894355 
26150000    299.08659    411.34322   -75.899885    7.6905558     24.89154 
26160000    296.91501   -743.47756   -49.499182    5.0155046    24.890653 
26170000     296.6751    380.64083   -41.984494    4.2540789    24.890809 
26180000    300.22425   -29.206881   -108.02467      10.9456    24.889311 
26190000    298.32578    672.39996   -693.28452    70.247054    24.885402 
26200000    294.52546   -202.01677    -622.2733    63.051842    24.883576 
26210000    294.65289   -379.19128    280.45245   -28.416844    24.881057 
26220000    296.89488    1016.6114   -510.30943    51.707103    24.878262 
26230000    299.97706    57.554003   -230.54379    23.359849     24.87527 
26240000     297.1459    97.657929   -7.0854582   0.71793405    24.871538 
26250000    300.45782   -322.73857   -463.24595    46.938395    24.869436 
26260000    300.55461    452.44708   -343.50205    34.805345    24.868013 
26270000    295.31515   -449.53463    -134.2181    13.599649    24.866194 
26280000    294.58837     108.3027   -91.102431    9.2309538    24.860963 
26290000    298.83008    709.55322    40.399938   -4.0935238     24.86048 
26300000    300.56223    9.3120658   -365.14126    36.997938    24.862048 
26310000    297.32114    513.19355    272.81269   -27.642746    24.861624 
26320000    299.87333   -972.53397   -733.73894    74.346098    24.861404 
26330000    300.83675   -437.26726   -55.953407     5.669479    24.861589 
26340000    299.28233    198.69319   -833.08855    84.412698    24.864032 
26350000    293.82602    213.86811    275.02836   -27.867248    24.865706 
26360000    299.27548    347.59945   -703.13629    71.245284    24.866254 
26370000    295.60499     280.7108    105.11412   -10.650688    24.867876 
26380000    297.23577   -819.88391   -782.08919    79.245187    24.867013 
26390000    296.15064    110.03121   -791.15283     80.16356    24.867218 
26400000    299.39758    10.792981   0.29143596 -0.029529749    24.867431 
26410000    295.67925   -619.96202   -371.37986    37.630064    24.871055 
26420000    297.29867   -444.70841   -952.18147    96.479788    24.872292 
26430000    302.64842    102.72214     333.1393   -33.755339     24.87298 
26440000    297.69864    413.52511   -684.43964    69.350846    24.872296 
26450000    294.08683    1044.4379   -748.24471    75.815895    24.874636 
26460000    300.01742   -582.24004   -198.75994    20.139351    24.874821 
26470000    298.89094   -733.99197   -685.43357    69.451556    24.875088 
26480000    294.60449    772.28506   -116.11017    11.764863    24.877502 
26490000    299.99248    242.25624   -548.55528    55.582364    24.878369 
26500000    294.24888    -163.0661   -587.41586    59.519912      24.8789 
26510000    298.07466   -483.69307    219.96744     -22.2882    24.882551 
26520000    302.38618   -343.26169   -187.12353    18.960291    24.882921 
26530000    296.41649    1161.0789   -526.01558    53.298528    24.885705 
26540000    300.73694   -14.750545   -257.89032    26.130737    24.886607 
26550000     298.4814   -301.82694   -629.22753    63.756479    24.887074 
26560000    299.66415   -591.43014   -167.55997    16.978014    24.889244 
26570000    296.26529   -229.55956   -1536.3175    155.66737    24.891346 
26580000    299.92095    355.20751   -176.12894    17.846264     24.89181 
26590000    299.90303     86.48063   -336.51595    34.097479    24.891749 
26600000    300.44007    401.99976    -477.6903     48.40197     24.88989 
26610000    299.18311    723.85769   -465.22055    47.138472    24.889219 
26620000    296.33238    -200.9503    37.334341   -3.7829021    24.889841 
26630000    297.52956    536.53324   -68.917948    6.9831111    24.891504 
26640000    301.49361    282.54965   -1611.6337    163.29879    24.893911 
26650000    301.72228    662.59341   -1106.9991    112.16669    24.894112 
26660000    299.12577     182.1446     499.7899   -50.641212    24.896728 
26670000    298.17656    711.83461    443.64764   -44.952597    24.898738 
26680000    300.03258    983.11007    371.67655   -37.660127    24.898256 
26690000    302.61691    414.76173   -85.767349    8.6903767    24.900253 
26700000    297.02632   -121.35794   -560.59039    56.801821    24.905547 
26710000    300.39834    567.02393   -493.45255    49.999079    24.907785 
26720000    298.89271    543.92628   -479.61502    48.596992    24.911605 
26730000    297.32238    276.83561    -292.9816    29.686361    24.913222 
26740000    298.04692   -206.31962    258.88772   -26.231798    24.912904 
26750000    295.82186    748.34072   -1042.5518    105.63656    24.911676 
26760000    295.99295    366.81119   -463.49611    46.963744     24.91318 
26770000    297.23338    1028.7316   -186.02784    18.849271    24.914815 
26780000    302.10781   -431.74754   -89.025566    9.0205155    24.917765 
26790000    297.45321    743.86561    -250.7764    25.409919    24.919033 
26800000    296.23302    339.97394    17.409445    -1.764012    24.918815 
26810000    296.79704   -158.22279   -788.34724    79.879285    24.920905 
26820000    296.58795    499.63234   -166.66879    16.887715     24.92228 
26830000     302.2927    745.00133   -112.07701    11.356203    24.922043 
26840000    292.00496      353.911   -403.02449    40.836457    24.923824 
26850000    296.66669    556.96703    82.122473   -8.3210596    24.927427 
26860000    297.04814    742.63444   -1782.8465    180.64692    24.930349 
26870000    296.93324    214.26677   -214.90493    21.775243    24.933095 
26880000     296.5528   -84.031597    -102.0266    10.337845    24.931301 
26890000    299.15777   -366.93452   -448.73739    45.468316    24.932797 
26900000    299.79593    140.44448   -458.90937    46.498992    24.935884 
26910000    299.31976    464.94559   -138.49302    14.032805    24.938984 
26920000    297.51083     226.8784    58.580993   -5.9357191    24.941144 
26930000    296.87037    444.05424   -683.13667    69.218823    24.941326 
26940000     295.5496    159.56535   -701.51182    71.080685    24.943773 
26950000     298.7516   -299.25373    49.961222   -5.0623209    24.944525 
26960000    298.78765   -633.37686   -478.72711    48.507025    24.948218 
26970000    296.03052    44.052211    137.84169   -13.966809    24.953853 
26980000    294.66078    780.24762   -398.31534    40.359302    24.957575 
26990000    298.07193   -363.06114     369.7502   -37.464939    24.960296 
27000000    299.25556    504.36102   -768.73647    77.892223    24.961631 
27010000    297.81553   -594.41408   -228.94056    23.197402    24.962499 
27020000    299.02985    -186.4031   -991.84822    100.49902    24.964165 
27030000    299.31285    557.39023    -203.3986    20.609363    24.965176 
27040000    298.92959   -357.02185   -139.70679    14.155791    24.963066 
27050000    300.84695   -157.95797   -420.18868    42.575618    24.961846 
27060000    300.83532   -122.71153   -946.64729    95.919037    24.959831 
27070000    292.99361   -558.80502    370.25251   -37.515836    24.960568 
27080000     296.7732     5.400038   -1040.8678    105.46593    24.961396 
27090000    296.21437   -292.50177   -1201.0922    121.70067      24.9633 
27100000      298.663    292.35876    15.609202   -1.5816024    24.964544 
27110000    294.10881     43.10242   -1189.9056    120.56719     24.96421 
27120000    298.47546   -34.841252    448.49674   -45.443932    24.965095 
27130000     299.3596   -626.38404    182.30675   -18.472231    24.966575 
27140000    303.76415   -225.90554    130.62286   -13.235361    24.967913 
27150000    295.53041   -23.156026   -1245.0323     126.1529    24.968925 
27160000    297.47616   -266.90199    -164.0958    16.627007    24.970181 
27170000    296.72992    -120.0235     342.2896   -34.682494    24.970453 
27180000    297.82003    345.91183   0.25236789 -0.025571177    24.972061 
27190000    298.06174    826.14214    379.61805   -38.464799    24.972112 
27200000    297.08225   -179.18872    381.87865   -38.693854    24.971487 
27210000    300.86965   -1323.6971     27.88909   -2.8258621    24.971843 
27220000     293.5356    256.24231    378.48572   -38.350066    24.974603 
27230000    298.79753    72.955791    133.05545   -13.481844    24.975775 
27240000    300.03558    694.56417   -664.10694    67.290635    24.977037 
27250000    297.70528   -917.43024    436.95172   -44.274133    24.978228 
27260000    302.01373    1024.8974    601.41157   -60.938027    24.977041 
27270000    298.81621   -48.622425    982.82182   -99.584421    24.975556 
27280000    292.41574   -806.78774   -1545.1255    156.55984    24.972711 
27290000    297.55918    886.29885   -145.67634    14.760655    24.970181 
27300000    299.45356   -489.08589   -1284.9227    130.19479    24.969255 
27310000    298.53471   -45.633359   -612.03178     62.01412    24.969931 
27320000    299.61511    127.43942   -824.02853    83.494691    24.970911 
27330000    296.81727   -336.35269   -738.29442    74.807682     24.97365 
27340000    299.17036   -66.605552   -533.10164    54.016524    24.974329 
27350000    296.62546   -809.59283   -161.12878    16.326374    24.977268 
27360000    299.73867    845.79486   -84.274611     8.539125    24.978097 
27370000    295.69092    309.41572   -1187.4197     120.3153    24.978222 
27380000    298.85814   -450.65044     375.5147   -38.049027    24.977253 
27390000    298.89707   -158.95696    218.10995   -22.099991    24.978698 
27400000    301.41256    219.27776   -430.50489    43.620908     24.97809 
27410000    293.96348    261.98809    541.52484   -54.870005    24.975395 
27420000    299.07793    405.44703    25.278522   -2.5613463    24.972818 
27430000    299.69777    -1234.974    31.221369   -3.1635052     24.96989 
27440000     298.1462    597.65236     386.9913   -39.211894    24.968189 
27450000    300.15778   -381.93288   -73.744255    7.4721367    24.964445 
27460000    297.19868    891.41757    68.959943   -6.9873663    24.963384 
27470000    302.31305   -378.44822    464.79632   -47.095487    24.962862 
27480000    300.66785   -923.73723   -1184.3777    120.00707    24.964218 
27490000    295.35074   -726.39098   -273.49604    27.711986    24.966301 
27500000    298.21291    450.29661    725.80943   -73.542641    24.967128 
27510000    302.27516    929.24277    339.65925   -34.415973     24.96667 
27520000    296.82549    375.28241   -341.00916    34.552753    24.965032 
27530000    296.09581    1336.7032   -900.45951     91.23906    24.963639 
27540000    300.46251    266.80206    56.957869   -5.7712561    24.963453 
27550000    299.04371   -183.96604   -13.519846    1.3698984    24.961787 
27560000    298.62362    -605.4397   -368.41802    37.329955    24.959583 
27570000    300.43927   -547.61046    44.564634   -4.5155115    24.957418 
27580000    298.44281   -635.23857    212.95014   -21.577173    24.955181 
27590000    298.22065    304.49066    94.735284   -9.5990527    24.953824 
27600000    299.56144    698.47507    -381.4487    38.650289    24.951213 
27610000    297.48701    652.13091   -256.39343    25.979064    24.952007 
27620000     298.2746   -180.68976    197.76653   -20.038694    24.951456 
27630000    296.04882    1312.0426   -904.20157    91.618225     24.95164 
27640000    301.96375    702.96329   -216.00441    21.886647    24.951069 
27650000    300.11203   -115.97172    383.15545   -38.823226    24.952761 
27660000    294.12177   -403.21591    575.73494   -58.336342    24.951333 
27670000    297.55745   -516.33554   -153.52799    15.556223    24.952458 
27680000    298.10394    160.96323   -81.196828    8.2272686    24.953576 
27690000    292.37291    129.85221   -28.419209    2.8795763    24.953668 
27700000    299.66526    203.14579   -164.61831    16.679951    24.954262 
27710000     296.7345    948.89742     109.1348   -11.058084    24.954573 
27720000    292.38375    38.165432   -198.78269    20.141656    24.953866 
27730000    297.33286    413.02481   -433.16533    43.890477    24.953622 
27740000    301.31637   -186.17995    615.09411    -62.32441    24.950744 
27750000    297.65979    1054.8991   -785.56302    79.597173     24.95122 
27760000    296.67362    273.93514     227.3403   -23.035256    24.950266 
27770000    295.40269   -749.25417   -470.94172    47.718169    24.949682 
27780000    300.31617    111.80399    32.801125   -3.3235739    24.949882 
27790000     297.2925    895.34804   -750.57376    76.051887    24.950844 
27800000    295.98844   -147.34089    283.15869   -28.691055    24.950446 
27810000    300.22201    709.65672     647.2034   -65.577884    24.950815 
27820000    295.27746   -529.52462     226.2782   -22.927639    24.949042 
27830000    295.84042   -1129.7341    656.50896    -66.52077    24.950008 
27840000    296.12872    305.62674   -148.24133    15.020552    24.951046 
27850000    292.54413   -234.97845    340.08087   -34.458694     24.95247 
27860000    299.89662   -541.73875   -655.90011    66.459078    24.953966 
27870000    299.13652   -308.06481   -655.32558    66.400864    24.957257 
27880000     300.2863    96.507104    381.78403   -38.684267    24.960311 
27890000    298.82759    260.03668    128.41115    -13.01126    24.961462 
27900000     297.0029    1178.3122    492.01573   -49.853494     24.96335 
27910000    295.14338   -349.91729   -49.790321    5.0450043    24.965176 
27920000    296.81621    709.86516    3.2538576  -0.32969712    24.968307 
27930000    297.35995   -542.74361    397.69146   -40.296087    24.970879 
27940000    296.66674   -19.004246   -31.227571    3.1641337    24.973064 
27950000    299.93691   -466.09218    234.51604   -23.762338    24.975233 
27960000    295.95277   -219.64801   -873.13295    88.470196    24.978745 
27970000    297.62695    230.88756    12.600165   -1.2767117     24.97922 
27980000    299.55758   -196.02844   -151.21941    15.322306    24.979869 
27990000    300.28232    383.01606   -838.43021    84.953941    24.980273 
28000000    297.32043   -219.06628   -1067.8148    108.19633    24.984138 
28010000    297.23766   -81.642631    211.63326    -21.44374    24.988338 
28020000    299.35783    96.674902   -46.202698    4.6814884    24.989689 
28030000    299.22486   -1151.4984   -834.56041    84.561834    24.991812 
28040000    299.82459     451.8292   -336.65714    34.111785     24.99214 
28050000    297.94929    552.53167   -530.02418      53.7047    24.992072 
28060000     298.0984    668.16545   -156.23599    15.830611    24.994393 
28070000     299.8859   -419.78302    369.16061   -37.405198    24.994454 
28080000     301.0022    697.04854   -268.50223    27.205989    24.999156 
28090000      299.042   -90.165179   -191.18484    19.371804    25.004615 
28100000    299.75888    651.86318   -534.53803    54.162066    25.010418 
28110000    295.87597    956.89054    -82.67839    8.3773878    25.014612 
28120000    299.28657     126.6315   -421.72428    42.731212    25.019754 
28130000    299.30522    697.14705    237.76233   -24.091268    25.024402 
28140000    299.06397    63.325522   -661.01924    66.977774    25.027585 
28150000    294.07708   -316.13934    147.50705   -14.946152     25.03442 
28160000    295.32543   -64.301735    -1188.791    120.45424    25.040791 
28170000    296.43329    30.604206    13.290919   -1.3467024    25.048577 
28180000    297.99895   -653.77459   -162.47075    16.462349    25.054835 
28190000    297.39899    448.14974   -907.18946    91.920972    25.057022 
28200000    296.24713   -13.467521    156.95068   -15.903027    25.057758 
28210000    296.60758   -244.41268    46.723901   -4.7342993    25.059927 
28220000    297.89248    545.83217     275.1408   -27.878641    25.062889 
28230000     300.0538   -105.40169   -294.19255    29.809061    25.064941 
28240000    296.21791   -664.74705    -111.9959    11.347984    25.068103 
28250000    295.36266    253.71481    433.59491   -43.934004    25.069065 
28260000    300.20981    -31.65199    424.69286   -43.032004     25.07131 
28270000    290.27515   -194.99503   -275.95008    27.960641    25.075296 
28280000    297.49908   -102.22125    146.21082   -14.814811    25.077639 
28290000     297.4174   -666.88516    -991.1958    100.43291    25.079365 
28300000    296.68966   -124.08073   -349.43065     35.40606    25.081929 
28310000    300.56299   -125.47604   -650.21226    65.882758    25.084594 
28320000    297.23517     397.9993   -1166.7188    118.21778    25.086121 
28330000    296.49004    756.63855    -748.4286    75.834527    25.087461 
28340000    299.04716    162.39904    51.544741   -5.2227709    25.087573 
28350000    296.77149    59.093781   -31.367688     3.178331    25.089043 
28360000    293.02398    100.52516   -176.05753    17.839029    25.090697 
28370000    295.34556    83.339263   -77.759754    7.8790071    25.092419 
28380000    299.32251    -139.3272   -446.55557    45.247243    25.093896 
28390000    297.82281    427.55627   -589.21169    59.701874    25.094707 
28400000    301.48465   -288.94102   -1252.2984    126.88913    25.095184 
28410000      297.808    -90.22045   -455.12203     46.11524    25.098544 
28420000    295.37202   -30.310296   -47.451043     4.807977    25.101278 
28430000    298.83825    875.85711   -526.21994    53.319236    25.101874 
28440000    302.17514    422.90527    487.69999   -49.416202    25.106149 
28450000    297.50309   -491.84177    429.89207   -43.558814    25.110355 
28460000    296.10231   -153.75268   -67.382211    6.8275026    25.111127 
28470000     298.5592    215.57842   -1828.0362    185.22577    25.113736 
28480000    295.16556    219.17347   -384.38128    38.947433    25.115792 
28490000    296.40699    432.19759   -258.65272    26.207987    25.115941 
28500000    297.92199     435.3093   -808.92841    81.964671    25.118941 
28510000    298.53199    583.20169    -727.5455    73.718548    25.119238 
28520000    297.53593   -618.92073   -488.96964    49.544849    25.117578 
28530000    299.36099    15.874025   -212.12422    21.493486    25.119088 
28540000     298.8369    528.63438   -286.91966    29.072134    25.119602 
28550000    294.39445    -278.7148   -380.10372    38.514009    25.121765 
28560000    299.00304   -217.58442    39.079983   -3.9597793    25.121322 
28570000    295.70384   -18.080522    104.30562   -10.568767    25.123003 
28580000    296.98202    596.59437   -600.88051    60.884218    25.126518 
28590000    297.25382   -417.08138   -755.14482    76.515049    25.129523 
28600000    299.36297    493.52311   -680.01191    68.902207    25.128726 
28610000     298.0771   -1041.5315    474.40839    -48.06943     25.12758 
28620000    300.13257   -187.32379   -694.95075    70.415884    25.128195 
28630000    298.17321    478.78691   -179.19827    18.157265    25.129338 
28640000    300.06689    -330.8369    131.66469   -13.340925    25.126127 
28650000    295.91052   -813.84006   -364.74602    36.957891    25.125695 
28660000    297.85479    342.91721   -190.29636    19.281779    25.124255 
28670000     293.8081    149.30686   -234.32529     23.74301    25.123758 
28680000     299.7683    353.58929   -813.97238    82.475752    25.122167 
28690000    297.75146   -128.31577     14.41507    -1.460607    25.119966 
28700000    296.23311   -376.01681   -155.03426    15.708847     25.11971 
28710000    299.19201    457.28782   -749.79462     75.97294    25.119808 
28720000    299.47315    456.68217    -849.7843    86.104394    25.119843 
28730000    298.85794    509.86074   -390.39638    39.556913    25.120345 
28740000    299.43624    -39.11851    421.17401   -42.675456    25.120605 
28750000    298.36701    320.19715    -319.4742    32.370723    25.119053 
28760000    301.33704    525.25027    411.69764   -41.715263    25.114996 
28770000    295.54543   -540.01512    428.95744   -43.464113    25.113964 
28780000    297.72924   -470.77133    107.29747   -10.871916     25.11481 
28790000    298.06993    25.541239   -736.84875    74.661199    25.114385 
28800000    297.24911     365.5027    156.95778   -15.903747    25.113052 
28810000    298.47496   -97.204811   -112.90607    11.440207    25.109798 
28820000    296.75132    106.33255   -536.16063    54.326476    25.107177 
28830000     297.7981    306.58131   -883.01099    89.471089     25.10416 
28840000    296.45374   -195.93625    617.67354   -62.585772    25.102731 
28850000    297.49878     597.9897   -654.89883    66.357624    25.103806 
28860000    299.44176   -69.562313   -627.29357    63.560521    25.104037 
28870000    296.89318    80.637968   -351.81082    35.647232    25.102069 
28880000    300.68008   -111.37325   -246.87977    25.015093    25.102537 
28890000    302.06293   -30.426385    214.74694   -21.759234    25.101786 
28900000    296.73733    911.55816   -591.29458    59.912923    25.100734 
28910000    299.17044   -1002.2308   -426.53644    43.218804    25.100115 
28920000    300.13268   -9.6643522   -620.18126    62.839866    25.098096 
28930000    300.62727    347.14784   -61.588681    6.2404731    25.100022 
28940000    296.39895    173.44001    -454.2337     46.02523    25.100558 
28950000    300.34489    382.89996   -658.10853    66.682847    25.100702 
28960000    297.52334    560.04672   -412.83142    41.830143    25.099197 
28970000    298.58009   -51.246022   -296.72075     30.06523    25.099109 
28980000    298.83497    166.58309   -382.81488    38.788717    25.098918 
28990000     301.7613   -44.376152   -582.65604    59.037623    25.099742 
29000000    299.43974    129.41522    -470.3691    47.660149    25.100055 
29010000    296.85718   -69.603877   -1286.7947    130.38447     25.10204 
29020000    295.74011    332.72172   -368.93772    37.382614     25.10525 
29030000    300.97935    162.53415   -766.88601    77.704725    25.106029 
29040000    295.39106   -427.29939   -1187.5144     120.3249    25.106724 
29050000    300.95067    854.27001    200.27123   -20.292482    25.109166 
29060000      297.246    352.24015    31.851727   -3.2273762    25.111164 
29070000    296.57147    64.560451   -832.66111    84.369387    25.111689 
29080000    294.18284   -49.490615    167.29988    -16.95166    25.113311 
29090000    296.67464    603.83664    654.17571   -66.284354    25.115035 
29100000    297.77634   -575.94624    209.96247   -21.274447    25.117436 
29110000    291.33401    45.882076   -598.01298    60.593665    25.118027 
29120000    299.40424   -11.288742   -425.13029    43.076327     25.11795 
29130000    300.67429   -65.448462   -70.145307    7.1074732    25.117446 
29140000    293.12571    359.25333   -941.30987    95.378222    25.120029 
29150000    294.05758   -678.25548   -480.63984    48.700832    25.120574 
29160000     301.5653    237.43789    676.41756    -68.53801    25.120348 
29170000    297.87493    676.36536   -1581.4401    160.23942    25.122079 
29180000    298.19951    103.87221   -210.72418    21.351628    25.124832 
29190000    294.43952   -251.41679   -355.42139    36.013072    25.126785 
29200000    296.03535    1025.9899   -298.01099    30.195963    25.129275 
29210000      293.984    273.88614   -935.02192    94.741096    25.131014 
29220000    297.86417   -858.27033    412.60718   -41.807423    25.133429 
29230000    298.81994   -206.34366   -1296.3644    131.35413    25.135322 
29240000    298.94271    97.334227    212.55348   -21.536981    25.136433 
29250000    299.30899    1088.3866     118.3686   -11.993699    25.138878 
29260000     299.6547   -556.06646   -234.15385    23.725639    25.138591 
29270000    298.26951    93.546275    177.76742   -18.012284     25.13978 
29280000    294.12581    1365.9137   -308.46255    31.254968    25.139067 
29290000    291.81006    109.74937   -455.85936     46.18995    25.139248 
29300000    298.99523   -218.49117     230.9877   -23.404828    25.140338 
29310000    294.23362    405.83094    -1143.755    115.89097    25.141887 
29320000     295.6209    258.67617    454.26644   -46.028548    25.143063 
29330000    300.93383   -75.282487   -738.66948    74.845685    25.145342 
29340000    295.15769   -973.93728   -1100.2448    111.48231    25.145513 
29350000    301.26108   -990.57505   -565.87017    57.336795    25.149344 
29360000    294.44112     279.6611   -821.18973    83.207049    25.151886 
29370000    301.18934    106.00825   -139.23804    14.108295    25.155394 
29380000    295.71815   -1421.3566    240.28556   -24.346934    25.157972 
29390000    305.09327    774.33938   -1413.8835    143.26175    25.160284 
29400000    299.06262    1118.8018   -392.04819    39.724283    25.162111 
29410000    293.50793   -38.198767   -659.48639    66.822458    25.162291 
29420000    297.23513    413.60969   -273.69187    27.731829    25.161582 
29430000    293.37875     381.9075   -148.60499    15.057401    25.158977 
29440000    301.73486   -427.18371   -233.68322    23.677952    25.159938 
29450000     295.1717    534.99043   -521.00723    52.791058    25.159873 
29460000    292.63199    547.44099    -457.1838    46.324148    25.158716 
29470000     299.6892    600.56482   -162.63744    16.479238    25.156885 
29480000     299.3125   -701.45101   -346.40251    35.099234     25.15694 
29490000    296.03228   -611.08416   -4.9650925   0.50308799    25.158754 
29500000    302.93547   -167.55921   -672.98976    68.190687     25.15993 
29510000    299.26267    719.70353    97.560792   -9.8853473    25.163287 
29520000    298.23874    899.79506    109.32412   -11.077266      25.1677 
29530000     301.8846   -52.926252   -163.53209    16.569889    25.170625 
29540000    299.59359    570.59033    267.78444   -27.133258    25.172099 
29550000    296.34954   -352.26656    18.125168   -1.8365327    25.171703 
29560000    299.01271    334.03274    543.38927   -55.058918    25.171226 
29570000    299.10026   -896.01644   -708.22935    71.761339    25.169618 
29580000    299.26003   -883.36465    846.65013   -85.786825    25.168592 
29590000    296.31655    603.93674   -222.02338    22.496519    25.165619 
29600000    300.00766    101.87693   -1024.4319    103.80056    25.163733 
29610000    295.13277   -671.03308   -560.00292    56.742296    25.163596 
29620000    298.81592   -598.44933   -252.92215    25.627337    25.162905 
29630000    299.11482    386.90304   -280.98943    28.471254    25.162564 
29640000    295.53098   -276.87259   -381.60077    38.665698    25.163097 
29650000    301.01715     10.95097   -378.92825    38.394905    25.163061 
29660000    293.36904   -147.41903   -320.56055    32.480798    25.165791 
29670000    300.17917    -469.6012    -1077.417    109.16928    25.168488 
29680000    297.11574    1309.7572   -478.54618    48.488692    25.169688 
29690000    300.03218    258.03941    666.53079   -67.536232    25.172215 
29700000    297.53889   -116.04523   -182.33451    18.475044    25.173865 
29710000    295.33767    284.51133    198.53686   -20.116747    25.176194 
29720000    297.81167   -337.08221   -348.12807    35.274077    25.178791 
29730000    297.55292   -267.88006    1090.5022   -110.49514    25.183954 
29740000    301.35082   -225.82396   -432.14094    43.786681    25.189067 
29750000    298.39217    586.50827    44.164872   -4.4750056    25.192793 
29760000    296.47572   -449.33719   -1065.3936      107.951    25.195785 
29770000    300.15408    152.93819   -394.11503    39.933706    25.198877 
29780000    299.49961   -641.16567   -864.61496    87.607111    25.200667 
29790000    295.71102    406.52194    -850.8297     86.21032    25.203765 
29800000    297.32005   -425.72295   -102.80667    10.416886    25.206497 
29810000    298.25699    210.74003   -738.94427    74.873529    25.208857 
29820000    298.59059    146.80212   -165.18503    16.737373    25.211821 
29830000    297.17466   -273.75922   -422.16672    42.776043    25.215117 
29840000    296.87465    549.54272   -607.55144     61.56015     25.21707 
29850000    297.69659    900.82118    1316.4131   -133.38556    25.220165 
29860000    297.45891   -145.20977   -900.58974    91.252255    25.222842 
29870000    300.90808    243.09813   -874.72227    88.631234    25.225151 
29880000    297.11723    30.817272   -1101.4398    111.60339    25.226343 
29890000    301.27696     368.6185   -56.504176    5.7252856    25.227592 
29900000    296.17285    585.23924    58.347508   -5.9120612    25.229325 
29910000    302.34856    300.60692   -559.51912    56.693274    25.228794 
29920000    298.98116    459.52587    368.88461   -37.377233    25.230319 
29930000    295.26258    638.18057    411.31226   -41.676215    25.230767 
29940000     297.0663    794.82469   -1144.7865    115.99549    25.230595 
29950000     297.4626   -336.36977   -215.66014    21.851764    25.232289 
29960000    295.40847    630.99202   -629.34936    63.768824    25.233055 
29970000    299.58569   -259.85589    345.47755   -35.005513    25.235128 
29980000    295.35094    339.09851   -1311.8379    132.92198    25.236945 
29990000    300.41435    69.018015    239.26386    -24.24341    25.236986 
30000000    298.34017   -421.95117   -395.83507    40.107988    25.237871 
30010000    297.73672    1177.0524    457.66969   -46.373382    25.238241 
30020000    297.62703   -372.87541    44.263848   -4.4850344     25.23938 
30030000    299.51515   -86.319332   -272.17997    27.578636    25.238577 
30040000    297.65566    266.69545    551.95789   -55.927133    25.240214 
30050000     299.2017    82.304128   -694.18632    70.338429    25.242637 
30060000      297.455   -574.27595   -464.52649    47.068147    25.246029 
30070000    297.90263    248.95411   -1033.7196    104.74164    25.251357 
30080000    295.39648    -665.7953     15.90461   -1.6115346    25.251223 
30090000    301.29984    207.57329    382.50517   -38.757337    25.252871 
30100000    297.88827   -117.31017     115.7128   -11.724599    25.254318 
30110000    298.20535    265.72634   -781.00884     79.13572    25.257793 
30120000    297.88548    225.98193    348.49976   -35.311738    25.259347 
30130000    299.00037   -939.84189   -806.53926     81.72259    25.260165 
30140000    302.09987      417.968    811.62649   -82.238054    25.261512 
30150000    298.88831    314.71596   -244.96978    24.821563    25.263314 
30160000    294.69779    243.14319   -135.30953    13.710238    25.263702 
30170000    296.60037   -137.76773   -1096.3755    111.09025    25.266726 
30180000    299.24656    1295.2318    162.68563   -16.484122    25.267114 
30190000    301.67877     220.7783   -43.969159     4.455175    25.268617 
30200000    297.05989   -530.53648   -452.66083    45.865859    25.269308 
30210000    295.89235    364.83056   -460.79276    46.689827    25.272438 
30220000    295.18825    123.30693   -835.16118    84.622706    25.274561 
30230000    293.82559    8.4796626   -373.13644     37.80805    25.276845 
30240000    301.46455   -254.73748   -1120.6645    113.55133    25.278666 
30250000    297.11232   -145.63852   -592.84432     60.06995    25.281774 
30260000      301.478    521.27329    -961.9883    97.473465    25.283638 
30270000    300.91494   -32.851736    292.28004   -29.615275    25.286492 
30280000    297.91706    501.68412    521.11574   -52.802053    25.287063 
30290000     297.1212   -1113.0479   -499.19808    50.581245    25.286679 
30300000    296.70395   -417.17821    -1263.948    128.06953    25.289652 
30310000    299.11724    276.24691   -88.386044    8.9557159    25.290068 
30320000    300.37197    200.85794    629.93131    -63.82779    25.290118 
30330000    294.62097   -369.77458   -608.16638    61.622459    25.286511 
30340000    298.08195   -1074.1452    90.713046   -9.1914994    25.284871 
30350000     301.1333    658.53158    -930.2393    94.256497    25.285863 
30360000    298.45552    36.888589   -267.83067    27.137942    25.287181 
30370000    297.60303    236.64268    50.826127   -5.1499573    25.287777 
30380000    295.87396    -123.8549    107.93078   -10.936087    25.287667 
30390000    296.35874    564.04359   -682.82103    69.186841    25.288734 
30400000    302.44957   -221.87207    67.963019   -6.8863529     25.28923 
30410000    298.53414    87.573104   -812.75614    82.352516    25.289609 
30420000    301.38735    926.33791   -1221.7815    123.79701     25.29265 
30430000    304.48083   -334.04593   -1337.1232      135.484    25.297106 
30440000    297.90828    594.59686   -965.49718    97.829002    25.298376 
30450000    301.56541    194.23209   -492.39412    49.891834    25.298555 
30460000    297.46347   -597.76278   -966.08737    97.888802    25.300716 
30470000    299.98189    1027.0154    326.23701   -33.055965    25.301085 
30480000     298.5044   -461.68102   -18.239834    1.8481512    25.302473 
30490000    297.71554   -59.440828    -697.4558    70.669709    25.303521 
30500000     295.2595    580.64198   -267.35801     27.09005    25.306584 
30510000    299.17458    514.59306    21.321437   -2.1603946      25.3081 
30520000    292.56212    234.60367   -1475.7898     149.5344    25.306608 
30530000    297.68105    1222.5503   -66.682238    6.7565777    25.306995 
30540000    296.48673    793.69322   -317.21277    32.141584    25.307289 
30550000    296.37955    516.59923   -141.52697     14.34022    25.309892 
30560000    296.60619    271.83393    136.10143   -13.790477    25.311366 
30570000    300.04368    191.46511   -284.62239    28.839364     25.31006 
30580000     298.5852   -607.11505   -1047.8415    106.17254    25.310758 
30590000    298.61195   -756.11962    94.235675   -9.5484297    25.308617 
30600000    296.79122   -139.42927   -668.41097    67.726742    25.309429 
30610000    295.01562    702.07743    91.773093   -9.2989087    25.310574 
30620000    296.54606    255.00883    932.71502    -94.50735    25.312545 
30630000     295.4602   -344.28079   -73.079125    7.4047423    25.314336 
30640000    299.01729   -344.00163   -62.185214    6.3009168    25.315837 
30650000    297.62268    40.547005   -288.53408    29.235716     25.31541 
30660000    301.32192   -170.51207   -454.16246    46.018011    25.316702 
30670000    297.30722   -128.26968   -490.82268    49.732608    25.318068 
30680000    294.61822   -983.05598    561.18226   -56.861793    25.318809 
30690000    292.98643   -260.37556   -78.807644    7.9851845    25.321314 
30700000    298.32362   -234.50806   -886.25097     89.79938    25.323841 
30710000     296.9425    434.32524   -549.66415     55.69472     25.32644 
30720000    298.65985    597.58634    364.11212    -36.89366    25.326951 
30730000    297.14124   -723.58425   -307.40436    31.147747    25.326895 
30740000    297.34083    633.31609   -113.46767    11.497111    25.325586 
30750000    294.69495   -92.897574   -65.424895    6.6291775    25.323867 
30760000    298.53711    117.42519    393.86071   -39.907936    25.322443 
30770000    295.27998   -533.81105   -100.49477    10.182633    25.320336 
30780000    300.62335    966.31462   -756.40011    76.642242    25.319009 
30790000    300.52623    890.53663   -572.83945    58.042958    25.318119 
30800000    298.21042     989.0707   -477.79997    48.413082    25.316932 
30810000    299.17111    152.98137   -279.00214    28.269892    25.315389 
30820000    294.74056    480.64098    -345.9781    35.056231    25.314877 
30830000    298.59359   -552.01835   -341.97902    34.651024     25.31294 
30840000    294.72642    308.22633   -536.60888    54.371894    25.309507 
30850000    295.66724    -609.3508    482.87851   -48.927665    25.307741 
30860000    298.36311   -191.84602     128.7665   -13.047265    25.305873 
30870000     296.5314   -639.42647   -538.00407    54.513262     25.30371 
30880000    300.72347   -100.96624   -116.39323    11.793544    25.300498 
30890000    295.21321   -131.95938    25.336659    -2.567237    25.296992 
30900000    299.07423    765.60319   -99.929756    10.125383    25.293731 
30910000    297.80787   -256.49509   -866.25453     87.77324    25.293194 
30920000    297.76951   -160.89954   -379.81526    38.484781    25.292502 
30930000    300.50688   -217.15854   -1282.0103     129.8997    25.291682 
30940000    302.30537    647.29728   -625.26333    63.354807    25.291877 
30950000    300.01526    106.11493   -230.43076    23.348397    25.290394 
30960000    300.00581    139.47876   -780.61368    79.095681    25.291282 
30970000    298.96467    897.05654     361.0382   -36.582196    25.292302 
30980000    297.88169      510.434   -223.27171    22.623006    25.293371 
30990000    297.98063   -161.59989    84.947217   -8.6072767    25.294255 
31000000    297.37282    43.528644   -100.71589    10.205038    25.294396 
31010000    293.81554   -721.96601   -108.52848    10.996648    25.293303 
31020000    299.27239    866.04078    316.02773    -32.02151     25.29349 
31030000    301.56489    379.19668    481.33586   -48.771356    25.293332 
31040000    297.69974    555.47336   -360.57439      36.5352    25.295882 
31050000    298.51219    23.220724   -166.09363    16.829437    25.298131 
31060000    297.51282   -330.62697   -11.685163    1.1839991    25.299161 
31070000    297.73669    -355.2674   -272.36158    27.597038    25.299386 
31080000    303.30582    870.62164   -528.31907     53.53193    25.298555 
31090000    300.14103   -232.97781   -403.75101    40.910071    25.295681 
31100000    302.57402    423.80488   -716.65859    72.615432    25.293701 
31110000    297.55636    463.13326   -20.213126     2.048095    25.294693 
31120000    297.94106    809.29458   -273.42849    27.705142    25.292902 
31130000    298.80478    518.11751    -615.0615    62.321107    25.292602 
31140000    296.86336    72.150896    417.44625   -42.297741    25.291678 
31150000    298.67774    327.87058   -573.00324    58.059553     25.29155 
31160000    293.96032    617.25867   -156.20897    15.827874    25.292666 
31170000    298.56361    1522.0818   -241.01177    24.420518    25.291275 
31180000    301.59355   -236.88435    155.39375   -15.745272     25.29194 
31190000    299.70643   -13.868592   -105.30628    10.670158    25.293351 
31200000     300.0722     442.9618   -330.66328    33.504457    25.295854 
31210000    298.08275    -502.2846   -191.25776    19.379193    25.297609 
31220000    297.64113    14.331103   -549.37088    55.665004    25.297688 
31230000    297.69689    528.18685   -775.93939    78.622059    25.297048 
31240000    301.52321   -210.80719    265.48994   -26.900768    25.294532 
31250000    297.51124    798.47566    342.96738    -34.75117    25.292354 
31260000    300.68367   -510.56724    279.57348   -28.327782    25.289345 
31270000    295.23738   -322.90297    780.66842   -79.101228    25.286883 
31280000    292.36429    -590.4534   -119.83801    12.142587    25.285251 
31290000    298.62876    63.612808    6.8592046   -0.6950089    25.282238 
31300000    295.38752    244.19585   -747.81969     75.77283    25.280106 
31310000    299.89349   -339.01449   -685.97219    69.506132    25.279899 
31320000    297.70762   -330.75149   -75.800637    7.6804995    25.279256 
31330000    298.44136    52.381291   -575.88532    58.351581    25.277954 
31340000    302.17861    817.51776    278.64346   -28.233548     25.27748 
31350000    293.65126   -97.306436   -895.83521    90.770503    25.276535 
31360000    295.17398   -511.58758    662.35113   -67.112728    25.276612 
31370000    299.34336    357.31015   -671.29239    68.018701    25.276414 
31380000    295.69436    378.22052    462.94386   -46.907786    25.275137 
31390000    294.62145   -274.62149   -705.92094    71.527439    25.273059 
31400000    298.33854      159.342    257.18726     -26.0595    25.272881 
31410000    297.49747   -713.55365   -167.69329    16.991523    25.273066 
31420000    302.52408    437.31598    172.81543   -17.510523    25.273091 
31430000     300.4581    627.34379   -1022.6441    103.61941    25.272467 
31440000     297.4619    43.449769    395.80371   -40.104811    25.272207 
31450000    302.04223   -232.02236   -123.17723    12.480932    25.270601 
31460000     300.1807    450.56321    -307.4988    31.157316    25.268869 
31470000    301.14071    121.87992   -359.77651    36.454355    25.267373 
31480000    301.71802    258.32895    513.24957   -52.005013    25.265623 
31490000    300.19458     1183.976   -495.84032    50.241021    25.264845 
31500000    297.46826    92.380333    231.01536   -23.407631    25.265138 
31510000    300.32759   -356.83608    813.76736   -82.454978    25.262537 
31520000    298.00957   -139.10298    629.62978   -63.797238    25.261606 
31530000     295.7146   -407.15763   -292.19805    29.606967    25.258358 
31540000    299.83973    95.168695   -697.39078    70.663121    25.256167 
31550000    299.79482    204.59711    653.28662   -66.194267    25.255911 
31560000    299.28002    51.879263    229.85327   -23.289883    25.255529 
31570000    298.80473    724.12241   -592.35583    60.020454    25.256118 
31580000    297.25252    146.10328    821.24956   -83.213111    25.254769 
31590000    297.95902    313.25363   -72.505727    7.3466428    25.253848 
31600000    297.07004    260.86662   -454.38791    46.040855    25.252049 
31610000    299.94619   -727.86145    360.15617   -36.492824    25.251586 
31620000    293.69902   -33.430075    66.697428   -6.7581169    25.249238 
31630000    294.92268    34.955097   -109.26016    11.070786    25.247302 
31640000    299.45698   -100.53144   -1194.9248    121.07575    25.246948 
31650000    296.47547   -437.27615    151.77961   -15.379069    25.246678 
31660000    296.83318   -53.707178   -273.17925    27.679887    25.246348 
31670000    294.06518    -51.34288   -287.72851    29.154092    25.246193 
31680000    297.30186    473.52921    405.98303    -41.13623    25.244862 
31690000    299.20359    179.86764    364.48451   -36.931393    25.244898 
31700000    296.62242    257.79583   -707.89469    71.727429     25.24515 
31710000     299.0607   -820.85985    299.98646   -30.396129    25.245042 
31720000    296.16085   -437.11411   -1397.4385    141.59546    25.245017 
31730000    302.04403     743.4513    733.55331   -74.327289    25.245481 
31740000      299.615   -270.11505   -659.94162    66.868585    25.248387 
31750000    299.23399   -327.01269    -2.999593   0.30393376    25.248632 
31760000    300.82918    821.14958     245.0593   -24.830634    25.249122 
31770000    298.12489    659.28887   -335.40748    33.985163    25.248585 
31780000    300.53235    554.07553   -49.837847    5.0498198    25.247133 
31790000    297.03194   -1224.1722   -234.82166    23.793304    25.246426 
31800000    295.73272    509.46431    -116.7517    11.829866     25.24682 
31810000    297.02096   -339.06913   -139.51257    14.136112    25.249856 
31820000    297.54436    608.42021   -456.22113    46.226606    25.250473 
31830000    300.60676   -4.3957117   -67.020365    6.7908385    25.250581 
31840000    299.29104   -1011.0283   -519.85595    52.674405    25.250947 
31850000    297.59343    714.80306    235.70407   -23.882714    25.253178 
31860000    295.78682    819.21771   -1049.2055    106.31075    25.254406 
31870000    297.61217    116.36095   -1113.5344    112.82887    25.256915 
31880000    300.57362    1457.9245    140.38703   -14.224716    25.261527 
31890000    297.02235   -172.68843   -363.38672    36.820159    25.264383 
31900000    298.69234   -216.06596   -1061.5093    107.55743    25.264589 
31910000    296.69846    461.50545   -94.537061    9.5789677    25.266394 
31920000    299.61201    348.24328   -777.60408    78.790734    25.269723 
31930000    298.99044   -764.77901    579.23026   -58.690506    25.272083 
31940000    301.43215    158.49045   -1807.6903    183.16422    25.272406 
31950000    299.46447    214.27047   -197.36151    19.997655     25.27323 
31960000     297.8002    266.26393   -1064.1194     107.8219    25.275208 
31970000    295.97802   -322.52416   -655.08613    66.376602    25.276337 
31980000    300.65977   -561.16265   -1383.7458    140.20805    25.277307 
31990000    295.78884    14.376877   -4.9698963   0.50357475    25.276681 
32000000    297.54307   -377.77631    120.70872   -12.230811    25.276077 
32010000    298.72876   -863.40099    17.969962   -1.8208064    25.278218 
32020000     301.7489   -195.64343   -621.54586    62.978134    25.279979 
32030000    297.73092    771.06677   -51.346553    5.2026895     25.27997 
32040000    294.55677    371.07186   -214.28722    21.712652    25.278983 
32050000    298.19667   -76.816313    549.94324   -55.722999    25.278486 
32060000    296.21837    949.40929   -152.72212    15.474569    25.279506 
32070000    299.51331   -246.90457   -1503.5713    152.34936    25.279056 
32080000    298.48455   -486.69288   -142.54212     14.44308    25.279581 
32090000    298.57933    807.87481   -498.05627    50.465551    25.279666 
32100000    295.94742   -424.07026    -345.8365    35.041883    25.280016 
32110000    298.65121   -327.06447    512.24572   -51.903297    25.278696 
32120000     295.6606    50.267101   -805.19293    81.586174    25.276456 
32130000    298.09999   -917.76043     847.9938   -85.922972    25.274219 
32140000    297.87936    -210.8668   -56.005254    5.6747324    25.270845 
32150000    297.04829    909.96137   -434.67786    44.043734    25.268749 
32160000     299.0083     1022.732   -561.66493    56.910699    25.267383 
32170000    293.68276    1239.1726   -132.07403    13.382401    25.266379 
32180000    301.70801    445.37035    -293.8811    29.777503    25.268292 
32190000    296.74907    403.20701   -825.38283    83.631916      25.2675 
32200000    296.27031   -763.16777   -145.05315     14.69751    25.266696 
32210000    300.67827    179.99589   -696.42229    70.564989    25.263754 
32220000    295.25146    181.57297   -361.24918    36.603573    25.261532 
32230000     298.5725    184.67742    -269.4321    27.300208    25.259462 
32240000    299.21409   -37.458169    47.194167    -4.781949    25.257356 
32250000    295.82644    229.48107   -390.83226    39.601078    25.255861 
32260000    293.82383   -98.593917   -702.84322     71.21559    25.255178 
32270000    294.18666    86.661035   -115.44706    11.697674    25.255345 
32280000    294.69186   -632.33894     252.0048   -25.534386    25.254607 
32290000    295.85578    -563.3217   -59.275017    6.0060411    25.254409 
32300000    296.99569    428.24972   -477.99147    48.432486    25.251253 
32310000    299.57434   -317.84758   -59.925856    6.0719874    25.248238 
32320000    296.92856    175.89879   -59.653511     6.044392    25.246247 
32330000     298.6336   -697.17586   -176.25754    17.859296    25.245141 
32340000    302.59959    130.18715   -143.04722     14.49426     25.24464 
32350000    297.05865   -26.510934   -148.47533    15.044263     25.24561 
32360000    299.13237    420.66124    853.99229   -86.530769    25.243023 
32370000    296.65422   -1084.0781    667.32257   -67.616459    25.240931 
32380000    296.41799    118.15405   -1147.1095    116.23087    25.239629 
32390000    296.33476    430.29958    -253.9673    25.733237    25.239163 
32400000    298.37574    496.89223   -89.279381    9.0462333    25.236806 
32410000    292.87939    263.78666    470.06473   -47.629309    25.235174 
32420000    294.70756    1346.9472   -161.68248    16.382477     25.23444 
32430000    300.04003   -622.36268   -419.99339     42.55583    25.236309 
32440000    299.74051   -1082.1138    260.31433    -26.37635    25.237975 
32450000    296.97252   -775.39817    339.31501   -34.381093    25.238724 
32460000     300.0824   -193.25726   -782.17978    79.254366    25.240125 
32470000    300.11488    1091.7253    145.49618     -14.7424    25.241819 
32480000    297.37182   -287.16615   -945.77069    95.830215    25.242338 
32490000    298.42052    252.26839    227.48193   -23.049607    25.241717 
32500000    298.25175    215.57741    138.19992   -14.003107    25.241778 
32510000    300.88341    128.23588   -364.72531    36.955792     25.24151 
32520000    295.61402    186.63017    101.17032   -10.251083    25.240462 
32530000    300.82413    443.71706   -52.360371    5.3054146    25.241003 
32540000    299.11448   -494.10584   -79.464847    8.0517756    25.239694 
32550000    299.48452    966.75929    993.40893   -100.65716    25.239473 
32560000    298.25387   -40.488219   -949.25265    96.183025    25.239519 
32570000     298.9123   -835.84061   -852.08031    86.337037    25.239001 
32580000    299.35604   -351.53132   -68.709113    6.9619508    25.240357 
32590000    298.68204   -296.29481   -731.76935    74.146529    25.241506 
32600000    297.34307    660.05442    -385.7534    39.086463    25.243634 
32610000    296.34485   -145.37853   -1726.1955    174.90676    25.245081 
32620000    300.63015    255.83046   -489.42079    49.590562    25.247074 
32630000    296.05263   -54.138008   -94.281208    9.5530434    25.246685 
32640000    296.94502    851.94941   -472.62861    47.889094    25.248392 
32650000    296.55332    1324.6439   -1379.4956    139.77739    25.250816 
32660000    298.38335     308.0367   -195.47708    19.806715    25.250262 
32670000      297.442   -474.84615   -584.75066    59.249861    25.249705 
32680000    297.38934   -297.15309   -949.52643    96.210766    25.250911 
32690000    301.76182    413.51228   -227.20154    23.021196     25.25113 
32700000    299.64847    43.431123   -472.28163    47.853936    25.252776 
32710000    302.27277    711.35909   -645.77343    65.432993    25.252467 
32720000    299.80395   -208.03243   -1141.4241     115.6548    25.250394 
32730000    300.47457    45.506498    -320.8298    32.508079    25.249517 
32740000    295.33627   -101.49202   -114.30247    11.581698     25.24861 
32750000     299.5782    428.12394    275.18656   -27.883278    25.246473 
32760000    299.29333    293.92241   -389.97689    39.514409    25.244205 
32770000    295.39803    19.082977   -86.506461    8.7652671    25.242312 
32780000    299.00905   -520.81917   -479.92781    48.628685     25.24097 
32790000    297.38928    389.89871     677.5259   -68.650312    25.239276 
32800000    298.47195   -737.18059   -373.95606    37.891098    25.236898 
32810000    299.26071    737.68332    375.00554   -37.997436    25.236993 
32820000    293.51204   -268.42807   -190.58582    19.311108    25.234894 
32830000    298.82045    585.53633   -687.63444    69.674559    25.233236 
32840000    298.34397  -0.71016239    814.16935    -82.49571    25.231618 
32850000    302.07842   -546.79597   -378.95526    38.397642    25.228152 
32860000    298.64793   -608.64661   -139.62927    14.147936    25.228446 
32870000    300.46414   -54.899779   -79.364207    8.0415782    25.226404 
32880000    300.32863     836.5042    204.35431     -20.7062    25.224399 
32890000    296.08721    175.63513   -257.15811    26.056546    25.223699 
32900000    299.46417   -199.71956   -842.05501    85.321223    25.224183 
32910000    298.81514   -692.43055   -859.39496    87.078195      25.2262 
32920000    297.96248    801.53781    498.14173   -50.474211    25.226689 
32930000    297.67007    277.94191   -636.47252    64.490578    25.226298 
32940000    298.17242   -67.909511    315.82888   -32.001361    25.224853 
32950000    298.23261    793.04242   -543.01956    55.021457    25.224093 
32960000    300.58085    696.02607   -44.705592    4.5297941    25.221867 
32970000    293.95925    666.80047   -412.78638     41.82558    25.222107 
32980000    304.63758    755.07949   -501.20032    50.784123    25.222274 
32990000    296.69965    402.85549     494.7594   -50.131497    25.221827 
33000000    299.25655    -390.1103   -785.72293    79.613375    25.222895 
33010000    297.68769   -70.430182   -476.89954    48.321846    25.222933 
33020000     302.0716    27.582937     805.1804   -81.584904    25.221743 
33030000    297.58656   -121.11207   -874.63298    88.622186    25.222608 
33040000    298.90984    622.91976   -467.16004    47.334991    25.223074 
33050000    303.09341    147.71454   -456.73054    46.278222    25.222929 
33060000    298.14745   -489.74448   -1133.3567    114.83736     25.22433 
33070000    299.24062   -128.44289   -1031.0157    104.46767    25.226355 
33080000    298.00208   -19.124619    -533.6313    54.070191    25.227703 
33090000    301.96757    19.367375   -1019.9618    103.34763    25.228768 
33100000    295.08527   -15.386515   -326.12615    33.044732    25.230599 
33110000    298.79335    716.22638    1076.0124   -109.02696    25.232669 
33120000    295.94152    395.52006   -142.67397     14.45644    25.234942 
33130000    302.38316   -535.82163   -170.98744    17.325302    25.235714 
33140000    299.69197    768.69055    20.984231   -2.1262272    25.236408 
33150000    296.96583    796.73102   -432.08099    43.780606    25.234206 
33160000    299.60203    1030.6076     -118.568    12.013902     25.23405 
33170000    299.12264    521.17218   -544.02269    55.123099    25.233439 
33180000    297.40613   -206.32891    6.3300685  -0.64139419    25.231329 
33190000    295.97419    26.236436   -614.62395    62.276771    25.231607 
33200000    299.25983   -70.325201   -540.81924     54.79851    25.228972 
33210000      298.011    120.86105   -508.33753      51.5073    25.227925 
33220000    302.76416    1070.8437   -185.12951    18.758248    25.226205 
33230000    293.07449    765.70099    999.26007   -101.25003    25.224859 
33240000    297.33111    110.44676    249.92838   -25.323993    25.223413 
33250000    296.30565   -388.91897    128.76339   -13.046951     25.22129 
33260000    300.99483   -122.60762    518.98718   -52.586376    25.221047 
33270000     296.1103    174.78799    670.62114   -67.950687    25.221404 
33280000    297.18783   -72.986967   -714.62558    72.409437    25.223498 
33290000    297.88626    252.94285   -221.01852    22.394701    25.223769 
33300000    295.30984    292.03604   -353.00716    35.768451    25.225507 
33310000    295.01403    74.561104   -1062.7424    107.68238    25.224614 
33320000     297.3076   -74.561744   -469.85356    47.607912    25.224328 
33330000    299.95295    234.33653    -381.4738    38.652833    25.225308 
33340000     293.8558   -190.08883   -313.75671    31.791398    25.223091 
33350000    299.53851    263.66532   -457.87975    46.394666    25.225378 
33360000     297.8332    141.55213   -403.53449    40.888132      25.2261 
33370000    302.55008    1111.5055   -58.462292    5.9236917    25.225624 
33380000     299.4726   -88.660344   -464.58951    47.074532     25.22599 
33390000    296.11992    63.093259    147.75704   -14.971482    25.224227 
33400000    300.78732    129.74413   -432.27191    43.799951    25.223078 
33410000     297.1501   -354.64389   -207.37643    21.012417    25.221963 
33420000    299.32316   -343.63143    -221.2716    22.420345    25.220499 
33430000    297.21441    360.82147    172.52078   -17.480668    25.218727 
33440000    298.78498   -547.34233    -978.4237    99.138781    25.214942 
33450000    300.96128    214.17921    297.96277   -30.191078     25.21228 
33460000    300.12114     91.88105   -827.90159    83.887129    25.208984 
33470000     295.1895    1034.9077    -639.5333    64.800711    25.205351 
33480000    303.56121    429.96512    409.78589   -41.521555    25.201082 
33490000     297.6016     194.5104    667.04963   -67.588803    25.198242 
33500000    300.76971   -198.37506   -78.538129    7.9578759    25.195405 
33510000    294.38748   -702.22214   -552.41971    55.973927    25.190734 
33520000    300.44636   -617.77049    800.94373   -81.155624    25.187207 
33530000    299.10924   -180.70428   -381.34897    38.640184    25.184125 
33540000    298.40022    255.54051     355.8644    -36.05796     25.18068 
33550000     296.1979    614.53596   -784.99451    79.539569    25.176213 
33560000    295.81722   -564.75713   -967.15932    97.997418    25.173691 
33570000    298.82757   -681.81977   -573.48241    58.108105    25.172841 
33580000    298.21943        36.34    485.04023   -49.146701      25.1717 
33590000    292.11858    -523.8322   -246.76268    25.003229    25.170896 
33600000    302.82112   -737.57039   -528.35222    53.535289    25.172038 
33610000    300.16741   -209.92451   -252.81345    25.616323    25.172634 
33620000    294.92446   -396.34416   -12.202924    1.2364613     25.17277 
33630000    299.83204    989.18754    70.460169   -7.1393766    25.173408 
33640000    297.19365    61.945158   -152.92909     15.49554    25.174885 
33650000    296.94143    967.08888   -3.6423508    0.3690612    25.175273 
33660000    296.79279   -627.99812    482.36835   -48.875973    25.174882 
33670000     298.5938    26.576074   -991.20319    100.43366    25.175672 
33680000    296.93384   -91.995478   -700.66739    70.995124    25.175768 
33690000    298.72643   -656.80817   -352.93001    35.760633    25.176729 
33700000    297.21734    847.69574   -402.27126    40.760136    25.176894 
33710000    297.77227   -395.57674    -785.4597    79.586704    25.178121 
33720000    296.04196   -159.99122   -398.30199    40.357949    25.178768 
33730000    302.79975     243.2655    165.54331   -16.773676    25.179282 
33740000    297.10043   -3.1135776    618.62056   -62.681729    25.178495 
33750000      303.876    611.10624   -443.55198    44.942904    25.178244 
33760000    297.27041    886.47462    243.18895    -24.64112    25.175348 
33770000    298.21986    685.62598   -796.07453    80.662252    25.174283 
33780000    297.69823   -466.76799    63.809548   -6.4655025    25.175114 
33790000    298.20792    135.84328    209.62494   -21.240247    25.174692 
33800000    294.57123   -369.03526   -590.81695    59.864528    25.175497 
33810000    297.85717    107.58966   -585.23157    59.298589    25.175594 
33820000     298.1923    478.72224   -1047.1615    106.10364    25.174611 
33830000      297.591   -5.9646188    -305.9608    31.001478    25.173705 
33840000    297.13572   -209.14387     126.6377   -12.831565    25.171987 
33850000    296.90406   -215.28743    17.952321   -1.8190189    25.172258 
33860000    296.40311    242.52046    343.35363   -34.790307    25.171944 
33870000    299.13808   -169.97325    141.01811    -14.28866    25.170572 
33880000    295.52454   -301.01479    199.37354   -20.201524    25.170276 
33890000    298.33646   -64.087171   -606.28786    61.432117    25.171055 
33900000    299.33357    246.22269    116.81369   -11.836147    25.172754 
33910000     296.3248    882.05388     137.7389   -13.956394     25.17251 
33920000    297.95204     12.47623    622.67639   -63.092685    25.171057 
33930000    299.55245     279.1024   -1148.2376    116.34518     25.17082 
33940000    299.19814    763.25661    44.719661   -4.5312197    25.169826 
33950000    297.08722    916.15511   -700.78531    71.007072    25.168039 
33960000    303.01464    58.780962   -76.817892     7.783573    25.165715 
33970000    299.29214   -126.25085    145.77343   -14.770493    25.165028 
33980000    297.05818    127.81821   -474.31094    48.059556     25.16563 
33990000    297.45881   -365.01633    9.5502251  -0.96767656    25.163085 
34000000    296.91072    477.77591   -319.44946    32.368216    25.162862 
34010000    299.14353    290.87572   -204.48475    20.719417    25.163265 
34020000    293.69588    -773.0817    70.410417   -7.1343355     25.16404 
34030000    300.72126    592.66834   -500.31018    50.693929    25.165729 
34040000     297.6122   -596.77071    1453.4887   -147.27475    25.165632 
34050000    301.17791    323.61603    641.66253   -65.016456    25.166367 
34060000    296.17281    146.53942   -173.81182    17.611482     25.16833 
34070000    298.76019    1055.2185    131.63012   -13.337422    25.167028 
34080000    296.37283    557.31692   -1166.2026    118.16548    25.168984 
34090000     296.1177    453.51924   -341.16623    34.568668    25.169552 
34100000    292.80229   -617.33568    133.25094   -13.501652    25.169646 
34110000     298.2166    294.05278    57.570285   -5.8333091    25.171674 
34120000    297.20288   -776.58266   -4.7554237   0.48184331    25.174172 
34130000    299.37627    65.828196   -883.86547    89.557669    25.175863 
34140000    295.44776    1065.7441   -304.04983    30.807849    25.178485 
34150000    297.61369   -231.32999   -612.55457    62.067092    25.181827 
34160000    295.74879    267.22042   -345.23015    34.980445    25.182692 
34170000    294.83041    -248.3627    -527.4321    53.442057    25.183932 
34180000    301.32897   -161.54556   -558.14567     56.55411    25.184455 
34190000    298.88322    -51.08822   -593.50088    60.136476    25.188184 
34200000    296.63474     335.1417    48.382421   -4.9023488    25.190484 
34210000    296.76371   -527.26959   -698.72709    70.798522    25.193399 
34220000     299.1274    288.41933    504.12857   -51.080828    25.195293 
34230000    301.65256    148.46011   -628.76557    63.709672    25.196745 
34240000    295.07168   -578.67044     158.3969   -16.049566    25.197051 
34250000    296.76984    49.232949   -339.03481    34.352702    25.197948 
34260000    300.10565    904.75883   -895.13022     90.69907    25.200452 
34270000    297.50729    1039.1024   -295.96546      29.9887    25.203575 
34280000    298.94443   -539.79489    -92.62148    9.3848715    25.207559 
34290000    294.48854   -138.86666   -1145.3081    116.04835    25.210816 
34300000    298.33109   -125.22553   -322.91197    32.719055    25.214411 
34310000    300.49784    248.48903   -884.91143    89.663651    25.217267 
34320000    295.55226    236.23507   -563.68949    57.115838    25.219481 
34330000    300.41137    725.85741   -17.517346    1.7749451    25.220475 
34340000    298.69307    1256.7936   -436.17206    44.195134    25.223593 
34350000    291.96603   -422.49688    26.681766   -2.7035299    25.226447 
34360000    299.22312   -235.55464   -402.52977    40.786329    25.228312 
34370000    296.51539   -237.48416   -705.04319    71.438502    25.227216 
34380000    299.59217   -146.18193    390.99098   -39.617161    25.226745 
34390000    295.93338    36.941057   -119.72794    12.131434    25.227891 
34400000    299.55312   -68.639993   -29.592406    2.9984506    25.227763 
34410000    299.71503   -331.85139   -561.28122     56.87182    25.226741 
34420000    293.86237   -519.44131   -1371.7421    138.99176    25.226567 
34430000    297.40038   -625.82147   -90.262865    9.1458848    25.226542 
34440000    301.23482    104.14643   -202.75136    20.543782    25.228274 
34450000    296.45276    162.25499   -81.739839    8.2822892    25.230821 
34460000    297.45247    55.956341    174.55892   -17.687183    25.232182 
34470000    300.41286    42.438891   -1098.6066    111.31631    25.234079 
34480000    298.17796   -498.29703    -1057.494    107.15058    25.236588 
34490000    302.53286    228.83264   -50.458181    5.1126752    25.239365 
34500000    293.14342    952.62704    284.76264   -28.853575    25.239503 
34510000    298.24082    388.59831   -411.46012    41.691197    25.239538 
34520000    297.78947    244.20473   -483.42793    48.983335    25.240397 
34530000    299.58162    751.23939    188.81434   -19.131613    25.242005 
34540000    299.64274    461.64056   -860.06912    87.146503    25.244825 
34550000     298.8426    395.08091   -1196.7115     121.2568    25.247296 
34560000    300.02906    364.09646   -77.433207    7.8459197    25.248914 
34570000    300.42693   -719.84005   -444.36686    45.025472    25.251948 
34580000    305.75491    444.29729   -694.94827    70.415633    25.255153 
34590000    302.34926    254.81184   -651.85606    66.049316    25.257839 
34600000    297.85249   -918.75297   -508.88356    51.562627    25.259017 
34610000    294.33993    772.32047    780.26208   -79.060055    25.262062 
34620000    297.79739   -91.052557   -222.47384    22.542162    25.263751 
34630000    298.36471    573.77618   -144.21642    14.612729    25.265234 
34640000     301.1422   -668.85802   -630.68702    63.904362    25.265857 
34650000    298.05244   -39.356895   -776.00426    78.628632    25.267268 
34660000    300.84087    484.59873   -241.94487    24.515064    25.268306 
34670000      298.215    232.91456    297.50953   -30.145153    25.269711 
34680000    299.54772    565.30005   -279.32863    28.302973     25.27142 
34690000    296.98972    536.86572    407.54803   -41.294804    25.271829 
34700000    299.23036    434.86624   -97.462859    9.8754242    25.272154 
34710000    292.82086    1210.4509  -0.31036442  0.031447674     25.27443 
34720000    300.68409   -766.86546   -78.540643    7.9581306    25.275453 
34730000      294.803   -693.35587   -940.95159     95.34192    25.274598 
34740000    299.16068    227.32076   -230.62528    23.368106    25.274024 
34750000    297.05405    192.50999   -913.79008    92.589779    25.274602 
34760000    296.12822    265.55039   -197.09719    19.970873    25.275528 
34770000    299.07972   -628.49184    2.8427688  -0.28804354    25.275165 
34780000     294.6796    298.95659   -535.93492    54.303606    25.274497 
34790000    300.50947    384.29237   -1417.9924    143.67808    25.272963 
34800000    302.56129   -250.08248    814.64524   -82.543929    25.272701 
34810000    296.14079   -369.76182   -55.442686    5.6177302     25.27117 
34820000    297.12187   -325.03505   -1631.4061    165.30222    25.271813 
34830000    299.12456    954.99704   -568.78884    57.632529     25.27396 
34840000    296.92394   -430.77313   -261.32396    26.478651    25.273768 
34850000    298.62497   -551.68689    12.904987   -1.3075978    25.273426 
34860000    293.91068    642.37162    -351.6022    35.626093     25.27331 
34870000     295.9073   -270.86554   -461.31875    46.743122    25.274045 
34880000    299.92298    236.84994   -642.83917    65.135679    25.272552 
34890000    296.48902   -1042.7644    172.67425   -17.496218    25.272213 
34900000     297.7965   -783.47814   -634.07421    64.247569    25.272479 
34910000    297.07049   -436.72152    493.59219   -50.013228    25.272832 
34920000    302.30417   -29.661956   -951.87188    96.448418    25.273092 
34930000    296.20493   -255.89892   -216.96995     21.98448    25.273381 
34940000    298.53249     112.9328    419.11804   -42.467136    25.272834 
34950000    298.72063    69.714741    34.596595      -3.5055    25.274097 
34960000    300.56881    526.68158   -148.74697    15.071787    25.274744 
34970000    298.34576    -1158.428    121.01981   -12.262332    25.274982 
34980000    298.94801    49.024952   -94.083445    9.5330051    25.276867 
34990000    296.87925    -544.6182   -251.67025    25.500488    25.278841 
35000000    299.73862    690.36952    1338.5434   -135.62791    25.278489 
35010000    294.89389   -250.67427    230.28976    -23.33411    25.277281 
35020000    299.54376   -97.168281    161.14138    -16.32765    25.275581 
35030000    295.67729   -397.29353   -327.39578    33.173377    25.276214 
35040000    298.60115   -29.320329    391.23798   -39.642189    25.277604 
35050000    297.48647   -395.68236   -280.79636    28.451692    25.277316 
35060000    297.89877   -262.66199   -9.0367276   0.91564643    25.275443 
35070000     296.4467   -180.19956   -949.76251    96.234686    25.275369 
35080000    297.92922   -141.32971   -101.85933    10.320896    25.275306 
35090000    297.86721    695.83464   -617.90709    62.609436    25.274701 
35100000    301.64816    852.79463    639.20793   -64.767743    25.273651 
35110000    298.12915   -607.95457   -843.61489    85.479279    25.274169 
35120000    297.22471   -27.212782   -484.41653    49.083505    25.273338 
35130000    295.56413    667.64647    586.52375   -59.429519    25.272174 
35140000    300.37422    333.03982   -581.03898    58.873775    25.270966 
35150000    294.32568    475.21018   -43.003582     4.357338    25.269526 
35160000     296.3334    704.29284   -690.45652    69.960506    25.270619 
35170000    295.17756   -93.020272   -1378.0238    139.62826    25.271812 
35180000    298.80866    676.00545    67.508863   -6.8403355    25.269393 
35190000    300.66747   -507.03118   -514.99623    52.181993    25.268953 
35200000     298.2308    -397.5963   -624.64547    63.292203    25.265858 
35210000    297.47788    321.36786   -1352.4901    137.04106    25.266744 
35220000    294.98225    623.73946    407.72429   -41.312664    25.266711 
35230000    295.57235   -285.79123   -735.59985    74.534655    25.267416 
35240000    293.94086     1203.487   -253.68556    25.704689    25.268361 
35250000    294.37193    30.393904   -1502.1902    152.20942    25.268577 
35260000    296.89519    344.02928   -777.38502    78.768537    25.270361 
35270000    298.22207     1325.428   -125.68391    12.734923    25.271341 
35280000    301.31862   -223.34283   -1033.5902    104.72853    25.271819 
35290000    301.61801    892.05441   -703.10556    71.242171     25.27302 
35300000    299.06394   -87.081846    225.39357   -22.838003    25.275454 
35310000    297.10412   -1127.2736   -921.66011    93.387211    25.274609 
35320000    296.18066    459.44691   -138.18228    14.001319    25.273952 
35330000    296.78424   -522.45478   -600.22116    60.817409    25.272633 
35340000    298.11031    395.78271     116.8757    -11.84243    25.271535 
35350000    297.10882    1686.4971    185.99442   -18.845884    25.269426 
35360000    296.82349   -273.90675    778.43861   -78.875292     25.26637 
35370000    300.49779   -14.349133    809.74821   -82.047737    25.263918 
35380000    298.78671   -529.00344   -678.96578    68.796208    25.264619 
35390000    295.55672    485.84539   -316.00823    32.019534    25.263955 
35400000    297.31569    155.53818    196.90004   -19.950896     25.26366 
35410000    297.48287    209.36438    320.22156   -32.446449    25.264183 
35420000    295.53748    -1094.324   -831.26854    84.228284    25.261301 
35430000    298.21532   -561.05733    299.09121   -30.305417    25.259251 
35440000    295.49997   -240.46226   -498.53169    50.513723    25.257178 
35450000    297.52374    221.32287   -146.79122     14.87362     25.25505 
35460000    296.83784    563.34794   -871.31232     88.28572    25.254638 
35470000    294.96513    25.423134   -456.49412    46.254267    25.253799 
35480000    296.05847   -42.085045   -50.382301    5.1049867    25.254683 
35490000     297.9948   -389.69993   -658.66816    66.739551    25.255389 
35500000     300.8412    332.56319   -312.93536    31.708175    25.256501 
35510000    299.18639     244.5713   -109.24858    11.069612    25.254794 
35520000    298.55172    522.90208   -817.77909    82.861467    25.253173 
35530000    297.08133   -229.90471   -175.08438    17.740425    25.251587 
35540000    299.71027   -394.19832    753.15135   -76.313061    25.250962 
35550000    296.71814    1511.5905   -107.86836    10.929762    25.250881 
35560000    298.11947    234.93152   -513.35059    52.015248    25.251069 
35570000    299.18991   -337.21183    141.12012   -14.298996     25.24995 
35580000    298.44642   -486.29592    394.79398     -40.0025    25.252082 
35590000    298.27068   -246.31212    -825.2579    83.619257    25.254783 
35600000    299.76967    699.78999   -38.782689     3.929656    25.255346 
35610000    296.08363    660.37141    8.4656865  -0.85778569    25.255224 
35620000    301.74689   -1.4049528   -665.72154    67.454235    25.256081 
35630000    298.75171    17.991665    136.04187   -13.784442    25.256883 
35640000    298.90066    107.28791    223.73199   -22.669644    25.257071 
35650000    300.81833    269.92831   -1270.7708    128.76085     25.25801 
35660000    298.28075     758.9829   -120.81086    12.241161    25.258913 
35670000    297.53618    2.8929292   -1062.4778    107.65556    25.262169 
35680000    294.01959   -576.78775   -472.25144    47.850877    25.264369 
35690000    294.78402    534.73754   -1356.3578    137.43295    25.266678 
35700000    300.63092    680.94578   -825.98421     83.69285    25.268564 
35710000    297.45914    860.31974   -13.455277     1.363356    25.270853 
35720000    299.71147   -638.19482   0.08200749 -0.0083094089    25.270889 
35730000    296.82082   -297.59736    379.55132   -38.458037    25.269123 
35740000    296.81586    506.51991   -60.016387    6.0811605    25.270558 
35750000    297.22058   -508.68336     381.5765   -38.663239    25.270425 
35760000    298.23521    -68.41409   -176.69324    17.903442    25.271506 
35770000    297.82301     473.0362   -36.627288    3.7112599    25.273659 
35780000    299.71646    377.86685   -52.709176    5.3407572    25.276545 
35790000    295.87424   -16.766028   -1045.9317    105.97903    25.279644 
35800000    294.39206   -201.59551    -420.2526    42.582095    25.282611 
35810000    301.25318   -64.998082   -677.09677    68.606831    25.285142 
35820000    295.14649   -221.53177   -577.56603    58.521878    25.286455 
35830000    297.96268   -626.64283   -209.21712    21.198924     25.28831 
35840000    297.60727    369.85777     -23.4869    2.3798101    25.290422 
35850000    296.97365   -65.627838   -538.62164    54.575838       25.292 
35860000    297.64149   -184.76782    56.001176   -5.6743192    25.292623 
35870000    300.40564    390.63541   -694.96163    70.416987    25.292337 
35880000    296.42719   -272.07559   -119.31641    12.089735    25.291676 
35890000    300.51579   -790.39199   -113.51102    11.501504    25.290366 
35900000    298.93282    -763.6508    1141.8296   -115.69588     25.29156 
35910000    300.06064   -447.48687   -731.62926    74.132334    25.291645 
35920000    295.36274   -174.09217   -285.73146     28.95174    25.290923 
35930000    300.58585   -33.720821   -410.48763    41.592659    25.291534 
35940000    298.75404    101.76244   -1248.6871    126.52322    25.291648 
35950000    296.30363   -537.42095    173.39585   -17.569334    25.291633 
35960000    299.65099    333.86091   -631.65739    64.002685    25.290639 
35970000    297.79989    857.08232   -195.10039    19.768547    25.290529 
35980000    297.12663    305.83707   -692.92609    70.210736    25.291174 
35990000    300.27068    386.33136    -175.0742    17.739393    25.290793 
36000000    302.13282   -570.03503   -593.39962    60.126217    25.290406 
36010000    298.83147    119.56825    118.58341   -12.015464    25.289792 
36020000    298.16164       137.39   -809.71946    82.044824    25.289023 
36030000    294.34613   -319.12672    704.82148   -71.416036    25.287107 
36040000    297.02575   -338.91327    368.36033   -37.324111     25.28666 
36050000    300.62424    78.405371   -723.71716    73.330642    25.284061 
36060000    300.04182    23.149864   -612.95938    62.108109    25.281983 
36070000    295.80486      553.346   -81.771685     8.285516    25.282039 
36080000    301.13192    36.070237   -1254.6293    127.12531    25.282708 
36090000    298.99886    -191.0699   -831.08265     84.20945     25.28243 
36100000    295.52229    354.17467   -465.46912    47.163659    25.283324 
36110000    298.45709    1214.4404   -13.329022    1.3505631    25.284072 
36120000    297.56293   -424.67203     535.9772   -54.307889    25.285734 
36130000    296.94229    225.49938   -68.793231    6.9704741    25.286649 
36140000    295.67301    322.91088   -304.38815     30.84213    25.287392 
36150000    296.05834    737.02318    -816.4442    82.726209    25.287629 
36160000    300.18542   -1003.3043   -1573.6887    159.45401    25.286369 
36170000    299.88594   -205.37739    284.02597   -28.778932    25.285928 
36180000    300.40639    1002.1772     572.4107   -57.999514    25.286236 
36190000    299.90192    732.89884    422.27119   -42.786629    25.287908 
36200000     298.1718    824.95475   -535.08328    54.217314    25.289106 
36210000    294.10422    922.22896    1165.9388   -118.13875    25.290258 
36220000    295.95976   -447.53834    890.16718   -90.196189     25.29028 
36230000    298.95394   -1259.5938    102.38485   -10.374145    25.290454 
36240000    299.80063    654.85809   -1.7578934   0.17811855    25.290053 
36250000    300.21515    885.15308   -146.64545     14.85885    25.288985 
36260000    298.75006    168.64338    137.18523   -13.900293    25.289324 
36270000    298.30583     625.4013    -529.9743    53.699646    25.289591 
36280000    297.63968   -296.74084     -63.7447    6.4589317    25.291165 
36290000    297.49929    669.47082    408.40694   -41.381833    25.292836 
36300000    298.13989    754.65886   -326.05668    33.037693    25.295548 
36310000    298.26813    84.195625   -1143.2735    115.84219    25.298002 
36320000    293.56143   -919.45692   -64.854635    6.5713959    25.298513 
36330000    294.11957    77.382298   -611.86358    61.997077    25.299382 
36340000    299.43537    332.87495   -614.91501    62.306264    25.300123 
36350000    295.00937    559.54374   -910.51244    92.257673    25.299441 
36360000     297.0534   -852.72865   -1172.3174    118.78507    25.298703 
36370000    297.80502   -70.747788   -1025.6613    103.92513    25.298163 
36380000    299.96955   -480.93852   -1268.9804    128.57944    25.299415 
36390000     294.8202    196.39381   -398.07803    40.335256    25.301049 
36400000    300.80069     202.8421   -402.72906    40.806522    25.301542 
36410000     297.7505    219.95043   -54.764965      5.54906    25.301212 
36420000    297.43289    379.29802   -216.45425    21.932227    25.302785 
36430000     294.3196    1254.6427   -1075.7111    108.99643    25.304812 
36440000    295.24377    550.88831    66.819125   -6.7704479    25.306778 
36450000    294.70967   -24.641502    583.31441   -59.104332    25.307831 
36460000    301.39069    641.49225   -360.83997     36.56211    25.309702 
36470000    297.72672    27.666506   -36.502705    3.6986365    25.310891 
36480000    297.36837   -352.70217    -929.7882     94.21079    25.310506 
36490000    293.03063    416.47692   -30.605906    3.1011434    25.311252 
36500000    297.58941    602.81334   -138.55336    14.038919    25.311652 
36510000    298.73111   -834.46152    -42.45034    4.3012807    25.311244 
36520000    299.14018   -880.78934   -337.12872    34.159567     25.31007 
36530000    296.11105    383.58248   -788.18669    79.863016    25.308742 
36540000    297.94488    1175.7039    191.93186   -19.447495    25.308851 
36550000    298.48961    945.20273    107.50241   -10.892682    25.306781 
36560000    297.72801   -45.351348   -741.08014    75.089945    25.306277 
36570000    299.03561      1154.32   -850.70656    86.197842    25.304642 
36580000    300.59839    433.06692    478.23092   -48.456748    25.302691 
36590000    296.26826    479.00867   -168.64703     17.08816    25.300199 
36600000    300.95876   -298.70866    282.83518   -28.658275    25.300362 
36610000    296.52041   -527.43205    631.52506   -63.989277    25.301103 
36620000    292.96377   -242.56603   -371.64381    37.656809    25.300588 
36630000    300.58923   -234.31474   -669.00979    67.787417    25.299493 
36640000    298.94162    339.41129   -111.87944    11.336185    25.297782 
36650000    300.58264   -501.02965   -501.82797    50.847719    25.295972 
36660000    296.51425    250.92131   -706.20738    71.556463     25.29602 
36670000    296.12642    -361.9973   -986.53103    99.960257    25.297106 
36680000    301.88843    484.37129   -502.94836    50.961242    25.298262 
36690000    297.47212    633.41647   -526.25018      53.3223    25.299834 
36700000    297.89113   -133.45487    439.29748   -44.511817    25.300836 
36710000    296.69591    3.8117991    74.937283   -7.5930202    25.300661 
36720000    300.55282    486.37909   -477.19151     48.35143    25.302911 
36730000     300.2035   -126.95079   -815.02651    82.582562    25.305065 
36740000    301.22806    480.19818     379.7351   -38.476659    25.306906 
36750000    300.02944   -35.565782      44.0135   -4.4596679    25.308377 
36760000    300.08745    618.16229   -81.841778    8.2926181    25.309423 
36770000    295.01023    1196.7726    -1114.568    112.93361    25.311763 
36780000    297.47207   -413.87779   -824.39017    83.531334    25.314234 
36790000    296.60528   -664.84238    747.61671   -75.752264    25.314882 
36800000    298.67319   -77.273016   -801.30291    81.192017    25.318461 
36810000    295.98893    241.77769   -629.24061    63.757805    25.321999 
36820000    297.58042    1046.9231   -690.73002    69.988219    25.324056 
36830000    297.54322    427.50769   -1476.3187      149.588    25.325909 
36840000    299.57092   -98.171981   -543.95046     55.11578    25.328675 
36850000    298.90576    965.03984   -302.44597    30.645338    25.331986 
36860000    296.30982   -228.08869    127.51776   -12.920737    25.335123 
36870000    296.36605    151.84747   -253.77917    25.714174    25.336757 
36880000     298.8842    797.71533   -70.916961    7.1856611    25.340255 
36890000     293.2996   -137.81391    89.385673   -9.0570033     25.34031 
36900000    298.01268    805.26921   -202.79543    20.548247     25.34202 
36910000    295.85514    261.85492   -587.16284    59.494275    25.344235 
36920000     298.4371    213.57481    -105.5961    10.699525    25.346598 
36930000    297.13885    636.53119   -819.78836    83.065056    25.349339 
36940000    295.46167   -153.13118   -561.75798    56.920128    25.349712 
36950000    293.56449    150.62933     440.7607   -44.660078    25.351352 
36960000     298.1914   -281.42326   -1053.1757    106.71302    25.352867 
36970000    300.39003    426.29106   -344.60948    34.917556    25.353445 
36980000    297.91125    41.648515   -97.575203    9.8868074    25.353295 
36990000    302.63407    817.99934    154.11292   -15.615491    25.356015 
37000000    296.99143   -168.79426   -249.19621    25.249806    25.357846 
37010000    297.22199    -186.5796   -92.547097    9.3773346    25.360492 
37020000    297.83266     683.2442   -641.58551    65.008652    25.362646 
37030000    296.84943    117.79649   -328.11679    33.246434    25.365381 
37040000    298.11842    1023.7769   -323.82049    32.811111    25.368578 
37050000    297.94121    456.57026   -41.243505    4.1789982     25.37209 
37060000    295.33886   -505.46359   -105.05512     10.64471    25.376952 
37070000    301.56051    -783.9703    -1414.221    143.29594     25.37997 
37080000    298.39891    246.81955     -999.754    101.30007    25.382609 
37090000    296.25869    26.475699   -414.56802    42.006105    25.385948 
37100000    299.58479    -195.3792    -751.0098    76.096068    25.390568 
37110000    297.44986    451.78199   -125.38184    12.704315    25.394013 
37120000    296.61033   -244.74383   -616.35373    62.452042    25.397111 
37130000    299.93736   -219.76147   -790.45453    80.092805    25.400613 
37140000    300.82224    387.19882   -1310.9788    132.83493     25.40412 
37150000    294.67048   -528.58586    222.33124   -22.527712    25.408798 
37160000    299.35697    751.36731   -790.21107    80.068137    25.411757 
37170000    294.43074   -66.562649   -133.78406     13.55567    25.413865 
37180000     299.9567    565.32378    95.671585   -9.6939234    25.415834 
37190000    299.16306    105.59801   -670.00845    67.888606    25.416595 
37200000    297.06361    40.072774   -398.72676    40.400989    25.417121 
37210000    301.43362    275.89513   -436.98728    44.277736    25.418384 
37220000    301.23849    863.68292   -759.27015    76.933048    25.419798 
37230000    299.30954     752.0641    421.32204   -42.690455     25.41875 
37240000    298.25347    1227.7273   -211.43199    21.423346    25.418466 
37250000    300.72891    395.72351   -20.129985    2.0396707    25.416351 
37260000     297.7746   -325.86457   -678.44164    68.743099     25.41645 
37270000    294.61065   -72.335843   -860.77017    87.217538    25.415897 
37280000    297.38114    -83.91686   -508.05132      51.4783    25.417812 
37290000    296.56727   -670.37622   -626.65411    63.495728    25.417985 
37300000     300.0688   -69.867189    615.00398   -62.315279    25.420399 
37310000     300.3074    590.47232    226.76151    -22.97661    25.421319 
37320000     297.6719   -232.84229    14.069748   -1.4256172    25.423065 
37330000    295.12665   -74.527489   -415.36096     42.08645     25.42419 
37340000    295.96113    -447.4501   -1981.4189    200.76727    25.425591 
37350000    300.08723    1083.8731    651.45508   -66.008686    25.425984 
37360000    297.08045   -557.25064    -273.2906     27.69117    25.426841 
37370000    299.04874    446.53119    32.714933   -3.3148406    25.427942 
37380000    293.84094    681.79805    518.93245   -52.580831    25.429955 
37390000    304.00684   -547.89497   -847.28771    85.851427    25.430215 
37400000    298.07065   -76.546366   -97.452961    9.8744212     25.43111 
37410000    299.94636   -237.56631    37.391918   -3.7887361    25.429691 
37420000    296.76932     497.3273   -789.64748    80.011031    25.428428 
37430000    296.00055   -226.31201    39.164977   -3.9683913    25.429283 
37440000    295.92769    278.98873   -6.9977378   0.70904578     25.43187 
37450000    300.81255    -653.4719   -688.57643    69.770007    25.432165 
37460000     301.7257    694.83098   -467.88301    47.408246    25.432509 
37470000    296.60557    693.86221    -742.2597    75.209464    25.433258 
37480000    301.16939    503.09105    135.35783   -13.715132    25.434083 
37490000    298.37955   -242.77332   -512.29888    51.908685    25.434012 
37500000    298.03486   -382.52251     609.6668   -61.774488    25.434919 
37510000    297.18129    175.39837    5.3565424  -0.54275166    25.436036 
37520000    298.17848    -98.47379   -360.76971     36.55499    25.438912 
37530000    298.83689    882.95081     133.7953   -13.556809    25.439818 
37540000     299.4634    154.55031   -536.46959    54.357782    25.441741 
37550000    294.87571   -778.74495   -1213.5067    122.95856    25.442518 
37560000     299.8044    568.75083    401.89099   -40.721605    25.444124 
37570000     297.0883    1565.4862   -542.19748     54.93816    25.445616 
37580000    298.66361   -284.94618   -860.64714    87.205071    25.448171 
37590000    301.82503     158.9273    560.71424   -56.814371    25.449435 
37600000    296.71785    137.75855    513.32207   -52.012358    25.449535 
37610000    297.08806     891.9698   -315.46216    31.964203    25.447963 
37620000     298.3239     -339.878   -1104.0511    111.86798    25.446802 
37630000    297.09991   -340.01339   -110.69831    11.216506    25.444144 
37640000     295.9023     -135.341     173.2679    -17.55637    25.442277 
37650000     297.3656   -540.33067     8.593199  -0.87070589    25.440014 
37660000     296.3839   -377.96493    207.05146   -20.979489    25.438683 
37670000    298.04175    38.804903    -309.1478    31.324401     25.43759 
37680000    297.13648    175.27119   -506.98705    51.370463    25.435574 
37690000    298.18669   -456.83748   -1170.5756    118.60858    25.433116 
37700000    297.31381    894.35866    -928.6847    94.098978    25.432139 
37710000    298.53633    581.88692    128.28438   -12.998414    25.429933 
37720000    299.00964   -736.79859     231.6722   -23.474186    25.429582 
37730000    298.29298    476.94885   -100.40319    10.173353    25.427892 
37740000    299.66179    563.17914     89.08881   -9.0269237    25.426669 
37750000    303.80193    562.99654    -259.2876    26.272316    25.423029 
37760000    298.66304   -638.64244   -200.11167    20.276315    25.420255 
37770000    298.85853   -137.32459   -20.522598    2.0794523    25.416972 
37780000    298.41878   -44.948691   -412.91414    41.838525    25.414844 
37790000    294.00448   -914.54918   -262.01566    26.548737    25.412283 
37800000    295.47988    407.55628    19.193028   -1.9447336    25.410669 
37810000    297.00779    35.228556     387.3595   -39.249202    25.408395 
37820000    294.90616   -659.96127   -203.05324     20.57437    25.408005 
37830000     298.4255    331.78079    357.71752   -36.245728     25.40635 
37840000    297.74105   -342.90869   -93.614828    9.4855225    25.406026 
37850000    297.79053    49.342628   -65.809378    6.6681353    25.407206 
37860000    296.68073     340.2129    -905.9332    91.793682     25.40678 
37870000    297.84752    -369.4376      7.40631  -0.75044436     25.40578 
37880000    301.16438    146.34917    336.28718   -34.074299     25.40696 
37890000    296.69149    722.63618   -344.33833    34.890081    25.407147 
37900000    293.71654    125.38885   -805.31679    81.598724    25.407361 
37910000    303.62674    26.815741   -476.68376    48.299982    25.406861 
37920000    297.49563   -1103.2851   -1090.5376    110.49873    25.408996 
37930000    296.76422    -602.6907    647.73502   -65.631751    25.409427 
37940000    300.05582    240.46993   -611.57688    61.968028    25.410752 
37950000    299.58197    546.33342    398.46724   -40.374693    25.411461 
37960000    301.94463    521.16334   -275.36566    27.901426    25.411995 
37970000    301.67092    652.34514   -119.49563    12.107895    25.412141 
37980000     296.3546    261.40473    127.06526   -12.874887    25.411138 
37990000     300.6629   -590.32086   -227.54467    23.055964    25.409552 
38000000    293.79452    609.92903   -131.29509    13.303475    25.410111 
38010000     294.0878    90.483219   -745.66694    75.554703    25.409994 
38020000    298.73555   -21.125585   -557.50616    56.489312      25.4089 
38030000    298.09503    511.44092   -1051.1397    106.50673    25.409555 
38040000    299.53415    368.69376    258.61257   -26.203919    25.409891 
38050000    299.11074    99.716552   -854.86249    86.618942    25.409478 
38060000    300.84078   -956.25956   -339.50798    34.400646    25.409687 
38070000    298.59238    721.39812   -616.46214    62.463027    25.411137 
38080000    296.36322   -55.329653   -1607.1954    162.84907    25.414026 
38090000    293.31612   -377.41923   -549.19783     55.64747    25.414696 
38100000    296.45487   -583.78764     686.2516   -69.534443    25.415982 
38110000    295.27071    811.24342    589.07907   -59.688437    25.416209 
38120000    293.87726   -105.67044    -1106.676    112.13395    25.417846 
38130000    299.81285    578.74231    101.26276   -10.260449    25.419931 
38140000    298.03547   -657.03252   -349.59496    35.422709    25.422002 
38150000    300.80451   -707.37067     197.3424   -19.995718    25.424284 
38160000    297.40718   -1050.5883   -718.77824    72.830205    25.426775 
38170000    295.32726    -355.3398    835.81556   -84.689012     25.42769 
38180000    298.09361    941.58584   -926.87274    93.915381     25.42772 
38190000    297.43012    90.903614    243.85765   -24.708876    25.426583 
38200000    294.56394   -22.178427    36.139008    -3.661785     25.42534 
38210000    300.43624   -300.63859   -477.14753    48.346973    25.423667 
38220000    300.65713   -395.86233    -63.42242    6.4262767    25.422234 
38230000    298.17157     1427.364   -552.71824    56.004175    25.421069 
38240000    297.18952    3.9101304   -312.65196     31.67946    25.420536 
38250000    298.15669   -305.79299   -640.52325    64.901019    25.420381 
38260000    295.08939    201.21181   -739.90652    74.971028    25.420704 
38270000      293.738   -57.295336   -186.03895    18.850396    25.421062 
38280000    296.84315    618.81662   -922.28711    93.450742    25.421183 
38290000    298.97792    301.35121    22.718117   -2.3019132    25.419845 
38300000    300.88853   -344.96847   -165.88558    16.808356    25.418684 
38310000    296.67971   -129.35883   -551.30794    55.861277    25.418661 
38320000    296.14446   -344.36837     366.4688   -37.132451    25.418882 
38330000    295.48978   -732.63465    360.75965   -36.553972    25.417595 
38340000    301.80989   -50.644254   -262.23823    26.571289    25.416794 
38350000    295.54416   -539.02951    247.28825   -25.056482    25.415869 
38360000    299.71115    732.22287   -747.94562     75.78559    25.415128 
38370000    294.21787     1496.593   -1898.6903     192.3848    25.413879 
38380000    295.31553   -498.94866    -352.0186    35.668284     25.41469 
38390000    290.30639   -224.65291   -202.99164    20.568128    25.415984 
38400000    300.40591    683.56348   -391.71758    39.690784    25.416836 
38410000    296.41223    81.233344   -50.347429    5.1014532    25.416138 
38420000    298.17073    298.38486    220.48533   -22.340676    25.417093 
38430000    295.84402   -638.97697    245.57124   -24.882506    25.419204 
38440000    298.32791    508.53083    1194.2286   -121.00521    25.419518 
38450000    298.04053   -485.76551   -143.80977    14.571525    25.420673 
38460000    299.76202    645.00128   -289.75219     29.35914    25.421279 
38470000    295.75222   -443.52447   -370.51764      37.5427    25.420911 
38480000    297.87502   -261.80484   -475.41018    48.170936    25.420956 
38490000    299.95363   -4.3081263   -355.38292    36.009175    25.419998 
38500000    295.61591   -931.92509   -172.68316    17.497121    25.421139 
38510000    300.15443   -353.26805   -1065.5531    107.96717     25.42221 
38520000     296.1556    183.42661   -268.25532    27.180971    25.424774 
38530000    295.78195    393.34614   -565.53643    57.302978    25.426313 
38540000    299.44982   -594.33922   -82.293718     8.338411    25.427358 
38550000      298.909    23.416009   -858.50317    86.987833    25.429191 
38560000    300.84258    61.284998   -602.74376    61.073011    25.430085 
38570000    297.43571    107.22529   -706.53885    71.590049    25.431369 
38580000    295.72925    325.48978   -696.27689    70.550256    25.430793 
38590000     298.6528    347.32823   -700.90806    71.019509    25.430935 
38600000    299.58572   -464.85528   -404.80014    41.016375    25.430922 
38610000    297.78396    117.11636   -34.591146    3.5049478    25.432352 
38620000     298.3311    349.14692   -872.16765    88.372387    25.433501 
38630000    297.14135    418.31913    237.96369   -24.111671    25.431382 
38640000    296.75165    359.17655   -750.61102    76.055661    25.430956 
38650000    296.82308    206.01363    140.51733   -14.237919    25.431165 
38660000    295.97331    909.31719   -412.60532    41.807234    25.431824 
38670000    299.70032   -545.30907   -148.51619    15.048403    25.432319 
38680000    297.13908   -346.51935    50.379589   -5.1047119    25.431295 
38690000    302.32038    139.23992    512.78562   -51.958003    25.432079 
38700000    298.13942    891.14461   -780.84925     79.11955    25.432491 
38710000    297.02899    593.46395   -295.10262    29.901273    25.433791 
38720000    299.28754    189.60243    165.50811    -16.77011    25.434234 
38730000    302.90498   -27.297462   -1192.2881    120.80859    25.434388 
38740000    298.93488    600.40479   -0.3540313  0.035872222    25.435559 
38750000    303.94817   -214.18735    89.182818    -9.036449    25.435636 
38760000    297.27533     298.3336     609.8368   -61.791714    25.436585 
38770000    303.69086   -493.16524     525.1777    -53.21363    25.438136 
38780000    298.04822   -656.60883   -304.29576    30.832768    25.439752 
38790000    297.50221   -604.57173   -815.91997     82.67309    25.441127 
38800000    301.82588   -1150.5818    196.87554   -19.948414     25.44153 
38810000    298.38341    302.19595   -491.18699    49.769522    25.443047 
38820000    299.40661    606.33381   -665.58854    67.440758    25.443609 
38830000    295.48938    576.32244   -57.469257    5.8230725    25.444489 
38840000    295.23121    472.63778   -645.35079    65.390169    25.444509 
38850000    295.68017    737.74821   -490.44606    49.694447    25.444196 
38860000    298.70705   -506.07733   -60.949188    6.1756764     25.44405 
38870000    302.98922    546.18349   -398.75826    40.404181    25.444978 
38880000    300.60877     598.1887    241.93791   -24.514359    25.446009 
38890000    298.96054   -1338.1586   -490.95473    49.745988     25.44611 
38900000    299.63882   -889.18839    -468.5127     47.47205    25.445381 
38910000    296.21521    735.19592   -390.54092    39.571559    25.444074 
38920000    296.54794    883.77321   -128.56099    13.026443    25.444843 
38930000    300.21716   -662.39153   -561.14497    56.858015    25.445785 
38940000    295.76496    150.61105    1631.5619   -165.31801    25.444675 
38950000    300.05972    465.67141   -136.70812    13.851951    25.444622 
38960000    293.30135   -840.18686   -629.98046     63.83277    25.445429 
38970000    299.19813   -152.81663   -118.31215    11.987979    25.445589 
38980000    297.61873    163.39783    504.68408   -51.137114    25.444647 
38990000    293.45696   -188.94716   -391.77938    39.697045    25.445383 
39000000    294.50683    532.00106   -319.29852    32.352923    25.445893 
39010000    294.68138   -151.58254   -212.22819    21.504021    25.444824 
39020000    294.33404   -647.33438    785.99914   -79.641363    25.444908 
39030000    296.43527    166.66103    110.23284   -11.169342    25.444486 
39040000    291.82533    492.75202   -155.22228    15.727898    25.444788 
39050000    301.21388    226.46379   -125.07407     12.67313    25.446107 
39060000    298.03804    319.98172   -38.939596    3.9455546     25.44657 
39070000    303.36709     176.4185    302.69203    -30.67027    25.448503 
39080000    300.43597    601.60339    20.621766   -2.0895005    25.451334 
39090000    295.87841   -192.85331    -1334.308    135.19875    25.453988 
39100000    298.22579    234.28898   -143.99824    14.590622    25.455098 
39110000    296.62995    632.87702   -939.47795    95.192603    25.457236 
39120000    295.66736    280.26045    50.284128   -5.0950392    25.460881 
39130000    299.77696   -299.40343   -717.53059    72.703787    25.464497 
39140000    302.30131    901.07052   -483.83675    49.024758    25.465769 
39150000    302.19891   -327.96851    68.557176   -6.9465559    25.466018 
39160000    298.12531    459.94827   -5.4502919   0.55225083    25.467078 
39170000    299.40333   -98.202782   -1134.5172    114.95496    25.469702 
39180000    300.96142     710.0796    410.24868   -41.568448    25.471468 
39190000    296.53796    38.432545    -293.2766    29.716251      25.4733 
39200000    295.82419    -110.0122    319.33351   -32.356468    25.476046 
39210000    299.07134   -676.47212   -188.35148    19.084714    25.478105 
39220000    298.96411    529.77562   -465.15558    47.131889    25.480373 
39230000    294.79148   -555.29394    319.21428   -32.344387    25.482367 
39240000    304.07545    679.26334   -355.77971    36.049379    25.484904 
39250000    297.71549   -91.416059    226.94962    -22.99567    25.486852 
39260000    296.35349    411.94122   -440.14878    44.598075    25.490268 
39270000    294.89304   -279.40351   -137.76489    13.959028    25.493423 
39280000    296.19814   -329.78004    393.03147   -39.823914     25.49668 
39290000    299.07615    158.54091    20.294267   -2.0563166    25.498857 
39300000    296.72788     470.2514    831.15227   -84.216504    25.502653 
39310000    300.65578   -26.619328   -1211.0477     122.7094    25.505308 
39320000    300.62695    652.68105   -263.36486    26.685444     25.50752 
39330000    298.17341    135.09799   -201.51375     20.41838    25.509772 
39340000    297.03312    677.33571    -533.6802    54.075146    25.510285 
39350000    302.19698    308.66347   -1144.8261    115.99951    25.511647 
39360000    294.19527   -642.94019   -111.88877     11.33713    25.513366 
39370000    297.87246    626.37225    -229.0258    23.206039    25.515001 
39380000    292.83932   -57.967794    328.31007   -33.266018    25.516306 
39390000    295.79307   -611.80645   -373.11598    37.805977    25.517363 
39400000    300.53584   -245.30064   -609.09724    61.716778    25.517983 
39410000    299.16349    361.44674   -137.10351    13.892013    25.517531 
39420000     300.2729    61.976995   -547.78752    55.504571    25.519107 
39430000    301.18649   -337.59416   -113.77875    11.528632    25.520388 
39440000    295.87527    239.64065    -639.4768    64.794987    25.521734 
39450000      294.894   -806.66693   -468.03255    47.423398    25.519979 
39460000    297.34343   -225.28265   -379.90756    38.494133    25.520088 
39470000     294.2605    604.95779   -48.338094    4.8978573    25.519242 
39480000    298.96026    1312.7954    76.586906   -7.7601683    25.519511 
39490000    295.27554    361.46657    324.39412   -32.869235    25.520672 
39500000    298.13066    -220.2254    322.42139   -32.669347    25.519719 
39510000     302.1203    507.43147    258.17705   -26.159789     25.51852 
39520000    296.68035   -597.81145   -366.62022    37.147794    25.517206 
39530000    300.32421    81.977563   -34.792066     3.525306    25.516396 
39540000     295.5585   -1004.7347    66.668329   -6.7551685    25.516712 
39550000    297.83392   -654.15625   -908.70228    92.074259    25.515679 
39560000    296.09003   -442.25964   -422.81195    42.841421    25.514931 
39570000    296.29582    -230.5322   -620.82462    62.905055    25.514004 
39580000    300.87176    347.83182    521.57258   -52.848342     25.51409 
39590000    295.73545    507.92631   -198.60196    20.123344    25.512383 
39600000    296.26452   -347.29596    339.98523   -34.449004    25.512361 
39610000    298.11558    547.84509   -25.821938    2.6164079    25.511861 
39620000    293.14026    536.61748   -530.33516     53.73621    25.512426 
39630000    295.46894    369.91392    -430.6918    43.639847    25.512166 
39640000    295.63508   -307.09723   -456.36766    46.241453    25.513474 
39650000    296.31719    629.47532    510.61437   -51.738002    25.513928 
39660000    300.09834    277.72876   -460.50699    46.660871    25.513301 
39670000    302.39289    197.23128    38.135007   -3.8640296    25.513618 
39680000    295.50914    384.13117   -135.33862    13.713185    25.514322 
39690000    305.27666    377.30462    384.32073   -38.941298    25.514998 
39700000    296.69352   -481.53512    -270.2331    27.381369    25.515303 
39710000    303.40519    173.43396     293.3829   -29.727022    25.518016 
39720000    299.66888    141.00904   -325.08115    32.938847     25.52068 
39730000     296.9248    98.945491   -650.72799    65.935013    25.519093 
39740000    294.99534    835.31401   -335.71316    34.016136    25.519516 
39750000    299.56846    624.68776    557.20233   -56.458526    25.518527 
39760000    300.01521    120.29648   -509.78974    51.654446    25.519047 
39770000    298.14044   -54.652181    58.903593   -5.9684066    25.518883 
39780000    296.89264   -247.97252    -508.8196    51.556146    25.518411 
39790000    298.87961   -727.42146    70.439942   -7.1373271     25.51825 
39800000    300.32783   -555.83396   -898.83975    91.074938    25.517602 
39810000    295.55339    672.28182     421.2077    -42.67887    25.516966 
39820000    298.36414   -333.95614    -108.9639    11.040768    25.517303 
39830000    299.39972   -1213.4066   -744.89695    75.476684    25.517434 
39840000    298.23824    310.32549   -1020.7524    103.42774    25.518835 
39850000    298.76265    247.13212   -829.02083    84.000535     25.52224 
39860000    295.78573    163.62424    461.51829   -46.763341    25.525839 
39870000    298.94913    798.67492   -824.94051    83.587097    25.527921 
39880000    297.88843   -242.89595   -426.01762    43.166236    25.531309 
39890000    301.94089    368.76314   -305.74666     30.97978    25.533304 
39900000     294.9278    94.153404   -410.43434     41.58726    25.533587 
39910000    304.84002    145.56957   -270.79247    27.438047    25.534049 
39920000    293.90617    42.429367   -483.42772    48.983314    25.534553 
39930000    297.29441   -564.93471   -352.10639     35.67718     25.53397 
39940000    299.69126    303.49385   -867.18206    87.867222    25.533073 
39950000    299.31175    1231.0199   -287.96021    29.177568    25.533453 
39960000     299.4538   -654.06139    209.72999   -21.250891    25.534788 
39970000    296.69728   -864.18097   -483.47233    48.987834    25.534054 
39980000    298.82486   -93.763648   -901.01254    91.295096    25.533466 
39990000    297.20629    712.11613    1069.3531    -108.3522    25.532877 
40000000     295.5384   -348.50901    -891.2551    90.306423    25.534163 
40010000    301.43689     325.1349   -132.25017    13.400248    25.535956 
40020000    296.56738    199.96547   -1127.8908    114.28354    25.536843 
40030000    295.30457    429.57961   -337.44024    34.191132    25.538572 
40040000    298.73446    128.23334   -450.15398    45.611852    25.539583 
40050000    295.64813    283.94441   -316.44116      32.0634    25.540747 
40060000    293.14809   -13.414402   -900.03267     91.19581    25.541726 
40070000    296.32275   -815.77831   -544.59463    55.181051    25.542354 
40080000    298.29159   -68.463435   -95.831415    9.7101181    25.542261 
40090000    298.66887   -379.69724   -1099.6683    111.42389    25.541622 
40100000    295.53615     155.8102   -380.85545    38.590178    25.539923 
40110000    296.70414      -70.111   -742.94366    75.278766    25.540131 
40120000    297.71633     641.6551    186.52719   -18.899867    25.539841 
40130000    297.56719    64.122129    61.823076   -6.2642231     25.54009 
40140000    295.34249    1647.0632     52.30403   -5.2997058    25.540961 
40150000    294.62088   -185.82852    264.87735   -26.838698    25.541507 
40160000    294.69976   -777.69471   -632.38834    64.076749    25.541809 
40170000    299.67164    603.32594    540.30818   -54.746727    25.541427 
40180000    297.69476    1547.8944   -1307.3001    132.46218    25.539454 
40190000    302.03842   -268.42796    172.70678   -17.499514    25.539097 
40200000    299.80594    802.45228   -989.89294     100.3009    25.537715 
40210000     296.2185   -931.46233    -545.9193    55.315273    25.537969 
40220000    297.95758    170.78493    643.84131   -65.237221    25.535672 
40230000    302.46953    1168.9124   -1128.1671    114.31153    25.534066 
40240000    300.49569    122.99884    388.31058   -39.345569    25.533015 
40250000    297.46271   -496.51193    977.27542   -99.022432     25.53232 
40260000    294.50801    153.17086    179.62618   -18.200623    25.531993 
40270000    296.96109   -272.01545   -424.15037    42.977036    25.531661 
40280000    298.20356   -152.45382   -155.34037    15.739863    25.532051 
40290000     297.0718    360.67031   -471.56164    47.780983    25.532039 
40300000    298.85418   -269.10541   -884.94558    89.667111    25.529842 
40310000    295.54742    165.85851   -105.04204    10.643385    25.527677 
40320000    300.90546    415.17855    947.72142   -96.027873    25.525813 
40330000    301.34055    1289.1096   -257.26023    26.066892    25.523574 
40340000    293.27872   -669.22013   -246.50954    24.977579    25.521956 
40350000    299.37206    641.78584    416.61326   -42.213339    25.520805 
40360000    295.86596   -1094.4537   -95.761058    9.7029892    25.518926 
40370000    295.27815    -806.1605   -591.54031    59.937822    25.515747 
40380000    298.39933   -416.70131   -157.33959    15.942434    25.513053 
40390000    301.02337    187.23687   -261.39213    26.485558    25.512013 
40400000    301.76367   -554.30904   -219.93324    22.284735    25.511358 
40410000     297.2409   -402.97684   -730.52791     74.02074    25.510436 
40420000    291.74688    -676.3904   -362.85036    36.765813    25.509631 
40430000    299.51516    814.47963   -431.78805    43.750924    25.509282 
40440000    299.32663    -101.0772    642.40564   -65.091752     25.50764 
40450000    300.06896    976.90366   -155.57486    15.763622    25.505774 
40460000    296.92454   -365.18476   -132.52408    13.428002    25.505173 
40470000    298.49452    378.32885   -90.045883    9.1238991    25.502494 
40480000    298.28341    852.50805    540.94346   -54.811096    25.501636 
40490000    302.76633    268.80564    985.16864   -99.822212    25.501266 
40500000    300.78901   -661.97952   -203.15687     20.58487    25.499618 
40510000    292.60557    -703.3854    413.98713   -41.947246    25.498193 
40520000    296.38595   -451.01638   -1300.6051    131.78381    25.496414 
40530000    298.61698    517.23071    94.599018   -9.5852455    25.496125 
40540000    301.85952   -44.659692    661.63501   -67.040168    25.494829 
40550000    298.36668    344.33006    953.44533   -96.607848    25.492937 
40560000    297.42305    69.098942   -23.852894    2.4168945    25.490933 
40570000    299.88467   -21.217845   -499.79215     50.64144     25.48936 
40580000    297.06536    413.96249   -767.60946    77.778029     25.48935 
40590000    295.09272    71.134608    374.24254   -37.920125    25.490006 
40600000    301.66057   -453.02116   -1288.9594    130.60381    25.488627 
40610000    293.62765   -139.07417   -1008.0743    102.14312    25.486034 
40620000    298.06391    27.458159   -346.56177    35.115371    25.484156 
40630000    294.93696   -674.50561   -102.45816    10.381573    25.483542 
40640000    297.23584     563.7313   -891.74536    90.356099    25.483873 
40650000     298.7562    710.65505    299.01403   -30.297597    25.483331 
40660000    295.98284    1420.5066    201.47787   -20.414745    25.481026 
40670000    294.89077    897.24496   -158.46532    16.056499    25.479346 
40680000    296.10999   -683.57688   -944.11607    95.662561    25.479399 
40690000    297.17197    -705.8153   -544.44603    55.165994    25.480005 
40700000     296.8817    932.69576    212.51436   -21.533018    25.481646 
40710000    298.04849    220.97742   -216.64904    21.951964    25.480536 
40720000    297.20326   -168.71567    193.17874   -19.573836    25.480328 
40730000    297.32198    2.8111795   -179.87504    18.225838    25.479435 
40740000    296.15632   -366.81136    472.55873   -47.882013     25.47875 
40750000    295.94998    472.79957    -1249.897    126.64581    25.480881 
40760000    298.02188    76.310439   -47.450375    4.8079092    25.479647 
40770000    301.99658    762.76279     581.1348   -58.883483    25.479355 
40780000    298.36631   -66.153669    6.5929045  -0.66802605    25.480469 
40790000    301.14643   -206.71393   -68.413822    6.9320305    25.481604 
40800000    300.05083    518.32293   -579.65867    58.733914    25.483573 
40810000    297.45112    483.46249   -624.68495    63.296203    25.484615 
40820000    292.95813     394.1133    498.76403   -50.537265    25.486627 
40830000    297.90848   -191.51907   -374.90236    37.986981    25.487241 
40840000    297.62578   -144.87079   -286.92757    29.072937    25.488612 
40850000    300.02951     300.8958   -312.70282    31.684614    25.489413 
40860000     299.0852    168.07117   -366.60364    37.146114    25.490282 
40870000     299.7318   -75.590573    -267.4512    27.099492    25.491526 
40880000    297.80784   -952.16098   -215.96433    21.882586    25.491949 
40890000     298.9499   -253.38669   -469.09496    47.531047    25.493416 
40900000    300.04005   -493.70644    200.80577   -20.346644    25.493454 
40910000    303.76105   -148.34001   -715.49039    72.497063    25.494221 
40920000    298.50579   -66.554774    25.496952   -2.5834786    25.494042 
40930000    298.20519   -240.01571   -324.94628    32.925182    25.494979 
40940000    295.59545     299.0207   -506.25149    51.295932    25.497414 
40950000    300.35996    76.855704   -778.20287    78.851406    25.498063 
40960000    295.54763   -268.18084   -535.70337    54.280144    25.500186 
40970000    299.08697    830.58829   -709.23265    71.862999    25.502543 
40980000     298.9933    452.18799   -302.11028    30.611324    25.502771 
40990000    301.79195    344.22103    181.97931   -18.439053    25.504073 
41000000    293.48007   -467.55717    150.79758   -15.279565    25.505074 
41010000     297.0323    341.78044   -141.12035     14.29902    25.504918 
41020000    294.07806    207.99212   -1248.0629    126.45997    25.505799 
41030000    295.24482   -617.53635   -374.04698     37.90031     25.50739 
41040000    302.59508    1617.5178   -16.540292    1.6759451    25.508623 
41050000    296.25822   -655.08538   -790.79092     80.12689    25.509623 
41060000    299.96631   -114.43941   -106.87158    10.828763    25.509209 
41070000    301.37173    26.051746   -179.66712    18.204771    25.510069 
41080000    298.88603   -322.23314   -823.35558    83.426504    25.508517 
41090000    297.08394    796.75676     350.8085   -35.545671     25.50947 
41100000    298.42045    -607.3365    -269.1801    27.274673    25.509639 
41110000    295.84034   -755.39407   -195.79693    19.839124    25.509126 
41120000    296.71661   -488.32592   -713.76469    72.322208    25.507134 
41130000    297.08736    941.88404   -282.67257    28.641799    25.505692 
41140000    299.00998    1247.9863    732.17555   -74.187688    25.502975 
41150000    294.49004    -153.3964   -574.98135    58.259985     25.50187 
41160000    296.70759   -880.13862    -948.1148    96.067732    25.501422 
41170000      298.225    808.20779    1454.5211   -147.37935    25.500291 
41180000    296.62565    712.68877   -271.71756    27.531782    25.498973 
41190000    299.20491   -58.928776   -1909.0633    193.43584    25.498987 
41200000     300.0152   -155.41409    -54.80183    5.5527954     25.49937 
41210000    297.00379   -588.40954    57.806883   -5.8572824    25.500469 
41220000    299.85167    -596.6397   -984.86605    99.791552    25.500722 
41230000    301.54211    233.93184   -100.23875    10.156692     25.50095 
41240000    297.66184    145.70805   -398.18294    40.345887    25.500249 
41250000    298.94926   -140.51891     771.5797   -78.180313    25.501698 
41260000    298.46721   -67.045851   -575.50636    58.313182    25.502362 
41270000    301.47772   -272.09121   -565.34499    57.283581    25.504638 
41280000    299.62281   -253.59383   -800.73119    81.134088    25.506449 
41290000    298.75741    317.51911     323.0386   -32.731886    25.509173 
41300000    299.41254   -488.98367   -40.890707    4.1432509     25.51162 
41310000    297.95303    36.015863   -494.69013    50.124477    25.513439 
41320000     299.9568    56.882874   -592.49944    60.035005    25.513982 
41330000    295.89292   -923.43033   -783.35379    79.373323    25.515961 
41340000    300.99439    413.54733    592.00768   -59.985178    25.518467 
41350000     295.5884    1024.6205    380.81438   -38.586017     25.51977 
41360000    299.93209    52.782085   -554.62549    56.197428    25.519851 
41370000    295.80431    250.69052   -1190.3719    120.61443    25.519901 
41380000    295.82758    460.72768   -394.61426     39.98429    25.518634 
41390000    299.29725    891.97314   -996.33254    100.95339    25.516436 
41400000    297.46172    568.02287   -582.10173    58.981458    25.515801 
41410000    301.92343    360.20934    257.06059   -26.046664    25.514782 
41420000    297.50945    361.28077     -172.014    17.429319     25.51354 
41430000    301.86826    61.816776   -307.38777    31.146066    25.514596 
41440000    298.71646   -783.74748   -406.59485    41.198223    25.514085 
41450000    297.88223     60.53845   -271.04207    27.463338    25.512442 
41460000    297.19036   -713.79189   -589.85339    59.766895    25.511916 
41470000     299.1182    276.13803   -1167.3813    118.28491    25.511673 
41480000    297.49731   -1.0667264    471.06506   -47.730668    25.511709 
41490000    297.74658   -915.27146   -556.05218    56.341987    25.510979 
41500000    294.60799    486.46166   -90.500294    9.1699423     25.50781 
41510000    293.87982   -46.139351   -1324.0665    134.16104    25.505927 
41520000    298.41869   -70.427821   -410.97028    41.641564    25.503659 
41530000     295.7911    132.60197    195.83041   -19.842516    25.501244 
41540000    297.56274    197.39285    227.61716   -23.063309    25.499541 
41550000    302.59243     226.8729    339.18504   -34.367924    25.498536 
41560000    292.75286    -165.3381   -2.0134956   0.20401744    25.497885 
41570000    298.40008   -70.095997   -7.0541863   0.71476543    25.495932 
41580000    296.35988    1854.0102    511.07349   -51.784521    25.495874 
41590000    298.67186   -396.18204   -109.43937    11.088944    25.494951 
41600000    300.36128    -70.57903    160.92405   -16.305629    25.494778 
41610000      297.779    731.35698   -390.46418    39.563783    25.493282 
41620000    294.48145    -608.5896    68.800972   -6.9712585    25.492401 
41630000    298.77203    610.39153    -783.4599    79.384074    25.490797 
41640000    300.24241   -794.92574     -246.228    24.949052    25.490178 
41650000    300.72381    229.04035   -464.29226    47.044414    25.489887 
41660000     299.4721   -216.27757   -289.48518    29.332086    25.490312 
41670000    297.01532   -299.05579   -236.47535    23.960865    25.489244 
41680000    296.88988   -554.85574    213.59406   -21.642418    25.488259 
41690000     298.6908   -55.781308    38.432983    -3.894222    25.486812 
41700000    295.89545    1131.2165   -30.732968     3.114018    25.487035 
41710000    302.33889    449.54219    891.17677   -90.298487    25.487125 
41720000    299.62261    135.16742    -20.97359     2.125149    25.487452 
41730000    297.28823   -583.17611    106.97381   -10.839121    25.486584 
41740000    289.97341   -91.975365   -1205.8846    122.18625    25.486057 
41750000    295.83854   -162.41799    14.146044    -1.433348    25.487881 
41760000    298.06556    366.75493   -675.63173    68.458385    25.488083 
41770000    298.69657   -435.84574   -731.26742    74.095671    25.487678 
41780000    296.70306    -551.4377    -690.7209    69.987295    25.487377 
41790000    300.08167   -704.07495   -1603.5656    162.48129    25.485797 
41800000    294.87552   -368.48172   -423.02447    42.862955    25.484407 
41810000    300.36818   -105.86578   -520.53836    52.743549    25.483722 
41820000    296.66211    -108.1086   -909.03196    92.107664    25.483238 
41830000    297.96052   -184.74657   -349.87444    35.451027    25.482803 
41840000    297.75509   -19.226385    195.30544   -19.789324    25.481015 
41850000    297.00963    155.45551    570.73527   -57.829751    25.479957 
41860000    294.26861     305.1623   -873.86371     88.54424     25.48019 
41870000    298.75266   -118.95961   -668.01497    67.686616    25.480898 
41880000    296.75472    983.90557   -133.03068    13.479333    25.481398 
41890000    297.87308    442.74727   -467.32927    47.352138    25.481375 
41900000    299.70773   -31.653724   -611.40318    61.950427    25.482016 
41910000    297.13527    1004.2075   -330.02788    33.440075     25.48166 
41920000    297.29276    25.900149    -178.8719    18.124196    25.480435 
41930000    293.53129     514.9116   -1126.2082    114.11304    25.479288 
41940000    295.55035    10.455143    -277.2938    28.096794    25.477792 
41950000    300.79889    790.57507   -414.37686    41.986735    25.476229 
41960000    296.77055    1186.5916   -248.12372    25.141136    25.474416 
41970000    298.64835   -704.79975   -367.25292    37.211902    25.473701 
41980000    301.56052     138.0343 -0.091923581 0.0093141568    25.472313 
41990000     298.6855   -77.282851    245.37527    -24.86265    25.470416 
42000000    296.01814   -763.34024    118.94809   -12.052415    25.469478 
42010000    302.80867   -395.89382   -951.57588    96.418426    25.469172 
42020000    297.80263    1309.8618   -626.01311    63.430779    25.469994 
42030000    299.08293   -563.89477   -342.32715    34.686299    25.470872 
42040000    298.25813    17.630386   -338.47655    34.296136    25.471665 
42050000    296.43665   -358.71687   -447.72423    45.365658    25.471656 
42060000    298.44669   -15.610685    632.00114   -64.037515    25.472392 
42070000    294.00335   -1202.2823   -741.29154    75.111366    25.474446 
42080000    296.75245   -27.030567   -1029.8305    104.34758    25.474534 
42090000    299.83555   -630.86332   -823.08537    83.399125    25.473773 
42100000    296.48953    291.51567   -617.95876    62.614671     25.47445 
42110000    297.59186    172.67367    53.535021    -5.424436    25.474751 
42120000    300.73282   -851.47814    95.405091   -9.6669208    25.474821 
42130000    301.34973    334.78686   -114.06603     11.55774    25.473675 
42140000    296.09755   -1089.3472     48.57467   -4.9218284    25.473343 
42150000    295.31828   -72.157924    325.44531   -32.975746    25.473148 
42160000    298.44529    -171.8441   -160.41306    16.253853    25.472426 
42170000    297.42199    519.01312   -753.39803    76.338055    25.473293 
42180000    300.91519     364.6136   -259.98047    26.342521     25.47373 
42190000    297.37939   -200.74961    264.06488   -26.756374    25.473486 
42200000    295.92798    277.83577   -776.56968    78.685922    25.473522 
42210000    298.50602     144.4706   -424.92273    43.055295    25.473675 
42220000    297.87548   -583.63727    502.58151   -50.924071    25.472337 
42230000    293.85491    185.51615   -132.17733    13.392868     25.47286 
42240000    300.27468    1326.0213   -656.83346     66.55365    25.473384 
42250000    300.60066    1397.4397   -553.46625    56.079968    25.472467 
42260000    296.62183    250.83694    343.33978   -34.788903    25.470348 
42270000    300.23566   -961.42402    546.74841   -55.399283    25.470014 
42280000    298.90512    652.10172   -1052.7923    106.67418    25.469548 
42290000    297.22179   -216.12628    59.552802   -6.0341876    25.469971 
42300000    294.14821   -822.69196   -394.64346    39.987248    25.468984 
42310000    297.93672   -201.88932    19.056212   -1.9308707    25.468831 
42320000    298.87412    438.79286   -801.49612    81.211594    25.467423 
42330000    293.78247    441.97713   -399.59926    40.489395    25.467038 
42340000    298.65901   -768.66739     220.9767   -22.390464     25.46687 
42350000    299.55764   -233.17418    163.97228   -16.614491    25.466752 
42360000    302.33625    171.08568   -208.99029    21.175941    25.464664 
42370000    296.12031    626.48564   -154.23603    15.627965    25.463119 
42380000    296.90441   -585.36704   -601.84419    60.981862    25.461459 
42390000    300.56448   -411.00354   -396.65958    40.191532    25.461663 
42400000    295.30331   -586.77092   -196.62501    19.923029    25.460631 
42410000    298.55404    318.47277   -748.09873    75.801104    25.459854 
42420000    294.93278    512.72908   -471.04433    47.728567     25.45763 
42430000    301.20664   -210.08948   -125.77177    12.743825     25.45552 
42440000    298.38438    1139.9966   -1137.4194    115.24902    25.455198 
42450000    300.20633    1508.6826   -17.304993    1.7534284    25.455268 
42460000    298.62422   -328.72272   -283.14415    28.689581    25.454793 
42470000    298.93544   -82.676131   -112.15977    11.364588    25.453074 
42480000    297.33844    162.50381    115.08661    -11.66115    25.452924 
42490000    298.85554   -1264.9612    20.962772   -2.1240529    25.452547 
42500000    294.96775    253.91156    351.51136   -35.616888    25.451024 
42510000    295.83115     438.4456   -150.72159    15.271865    25.450932 
42520000    296.70602   -22.016275   -292.14286    29.601375    25.451439 
42530000    292.78866      129.214    -712.3876    72.182674    25.452229 
42540000    302.36483    912.34534   -94.498178    9.5750279    25.452195 
42550000    297.99789   -73.116424   -1142.9319    115.80758     25.45244 
42560000    294.48233   -388.92876   -911.56299     92.36412     25.45255 
42570000     293.7257    594.81553   -655.04481    66.372415    25.454088 
42580000    298.94843   -53.854405   -140.39309     14.22533    25.454849 
42590000    296.60644    1319.4747   -207.74325    21.049585    25.455057 
42600000    295.14205   -590.03227   -1289.8248     130.6915    25.455783 
42610000    305.23521   -683.07905   -2.9203888    0.2959084    25.456359 
42620000    297.10642    416.86293   -1251.7441    126.83297    25.457649 
42630000     296.8851      169.184    665.36494   -67.418103    25.457797 
42640000    301.19121    529.00746   -787.25498    79.768611    25.457585 
42650000    294.39399   -247.54064   -702.55747    71.186636    25.457794 
42660000     294.0717   -702.82562   -734.26797    74.399702    25.458468 
42670000    302.57941    778.13187   -198.75027    20.138371    25.458448 
42680000    298.07556   -162.39413   -974.30586    98.721542    25.459264 
42690000    297.32489   -384.18536   -1055.7149    106.97031    25.459017 
42700000    301.91236     455.3782   -349.96862     35.46057    25.459917 
42710000    295.88451    613.92869    409.46612   -41.489155    25.460296 
42720000    299.39191    599.42427   -664.75706    67.356509    25.460315 
42730000    296.37454   -208.62546   -257.93091    26.134849    25.459671 
42740000    297.84242    505.93663   -707.95706    71.733749    25.459136 
42750000    302.86631    -230.0117     378.2821   -38.329434    25.458248 
42760000    302.76749   -108.79748   -282.22687    28.596638    25.458081 
42770000    294.96303   -132.58398    182.74597   -18.516736    25.458145 
42780000     300.0659    -1007.688    425.16874   -43.080223    25.459377 
42790000    298.17899    643.92215    -113.7422    11.524928    25.459062 
42800000     297.0395   -522.57481    97.159802   -9.8447169    25.459557 
42810000    297.31876   -338.43487   -608.94685    61.701539    25.461366 
42820000    298.20651    419.15748   -330.98038    33.536587    25.462531 
42830000    298.83589    219.54008   -321.85948    32.612411    25.464329 
42840000     297.7331    32.354051    240.86436   -24.405581    25.465144 
42850000    300.65666   -73.647553   -433.31454    43.905596    25.466628 
42860000    299.57201    887.23031   -681.76688    69.080029    25.467992 
42870000    297.45985   -31.640934   -608.56984    61.663339     25.46813 
42880000    295.52762   -412.18594    343.41721   -34.796749    25.467813 
42890000    301.66182    699.10318   -469.88006    47.610597     25.46851 
42900000    295.82683    932.25059   -1279.3864    129.63383    25.469119 
42910000    292.20325   -702.59333   -425.18196    43.081562    25.470219 
42920000    297.38992     418.5401   -505.83832    51.254067    25.470694 
42930000    294.06116    529.07876   -394.63142    39.986028    25.472298 
42940000    297.19444    878.38285    300.62643   -30.460973    25.472684 
42950000    299.95223     951.8651   -484.30885    49.072594     25.47372 
42960000     296.7973   -271.83437    81.006857   -8.2080198    25.475429 
42970000    299.36413     392.8029   -1602.9655    162.42048    25.477342 
42980000     299.7545    178.26532    114.48538   -11.600231    25.478998 
42990000    297.97423    501.85611   -426.30451    43.195304    25.481422 
43000000    292.60326    406.46906   -190.46314    19.298678    25.484139 
43010000    295.59222    1242.4338   -676.52259    68.548652    25.486012 
43020000    300.79063   -376.55021   -493.75443    50.029668    25.486952 
43030000    296.29743    158.99457   -251.36265    25.469321    25.487872 
43040000    295.31768    625.17552    65.977671   -6.6851875    25.489676 
43050000    297.35003   -125.69335   -522.58602    52.951029     25.49161 
43060000    298.56298    1198.8172   -528.99908    53.600832     25.49391 
43070000    296.20772    49.962236    137.95368   -13.978157    25.493994 
43080000    300.10069    1003.8392    47.172266   -4.7797299    25.494952 
43090000     298.5448    846.92373   -38.965729    3.9482025    25.496142 
43100000    295.00491    289.62054   -488.87513    49.535273    25.496638 
43110000    295.83813   -143.75629   -855.06834      86.6398    25.498419 
43120000    292.01588    114.14918   -838.49069     84.96007     25.49988 
43130000    295.76463   -82.714099     397.7222   -40.299202    25.500999 
43140000    296.66476   -80.394039   -173.75059    17.605278    25.501875 
43150000    297.39519   -814.81118      116.956   -11.850567    25.502505 
43160000    294.81689    166.60331   -212.51828    21.533414    25.502618 
43170000    297.35832   -66.633244   -823.25563    83.416376    25.503205 
43180000    299.32728    661.30617   -281.69249    28.542492    25.504609 
43190000    299.65808   -153.31482    89.219464   -9.0401622    25.504885 
43200000     299.2903   -362.86544   -704.56152    71.389696    25.506918 
43210000    299.11289   -233.25019   -338.13523    34.261552    25.507214 
43220000    300.32755   -203.61559    191.50421   -19.404165    25.508693 
43230000     300.8568   -11.674174    -394.1259    39.934807    25.510423 
43240000    299.08864   -288.54955   -597.62438     60.55429     25.51186 
43250000    294.95167   -274.26135    7.9344031  -0.80395339    25.513345 
43260000    295.71287    -72.69453   -6.6993761   0.67881428    25.514739 
43270000    301.55459   -1107.6325   -1104.9446    111.95851     25.51448 
43280000    296.50938   -542.50733   -222.73069    22.568187    25.513971 
43290000    297.53996    825.35266   -380.72731    38.577195    25.513741 
43300000     298.0766    343.58142     147.6898   -14.964669    25.513873 
43310000    300.60971    162.33603   -289.92204    29.376351    25.514817 
43320000    299.04367    639.01633    783.63901   -79.402223    25.513837 
43330000    296.79682    399.78765   -477.56207    48.388977    25.512579 
43340000    299.61709    598.70164   -154.67215    15.672155     25.51297 
43350000     300.9943    69.358122   -399.47952    40.477262    25.513054 
43360000    298.90021     501.9951   -639.86386    64.834205    25.513096 
43370000    300.03226   -138.38529   -1042.5212    105.63346    25.513568 
43380000     302.1241      119.949    449.89356   -45.585465    25.516272 
43390000    296.95212    476.41878   -219.01342    22.191535    25.518336 
43400000    296.12656     338.9487   -584.57096    59.231652    25.520825 
43410000    300.04355   -679.95722    -685.3727    69.445389    25.521246 
43420000    298.61566    163.41308   -885.55225    89.728582    25.524628 
43430000    297.25081     844.6123    201.74157   -20.441465    25.526963 
43440000    298.06544     255.5086   -601.76785    60.974127     25.52875 
43450000    296.26205    275.54747   -908.52306    92.056099     25.53233 
43460000    297.36108    334.41913   -148.98797    15.096206    25.535655 
43470000    300.72911    123.92405   -245.14409    24.839225    25.536401 
43480000    301.14095   -457.07041   -1019.6661    103.31767    25.537842 
43490000    295.95953    539.88523   -861.48353    87.289819    25.539495 
43500000    297.48394   -509.88325   -482.03441    48.842136    25.542495 
43510000    297.24801   -730.90794   -579.47998    58.715809    25.544799 
43520000    295.18961    142.83312   -645.16094    65.370932    25.545974 
43530000     299.7043   -506.29113   -1232.1574    124.84835    25.547694 
43540000    297.57005    813.73826   -572.37312    57.995707    25.549559 
43550000    298.15915    674.14244    -226.2003    22.919745     25.55155 
43560000    298.30228   -352.70196   -590.60169    59.842716    25.553786 
43570000    297.31831   -179.62582   -864.27964    87.573135     25.55486 
43580000    295.70917    848.23895   -93.174836    9.4409403    25.556659 
43590000    295.85269   -366.79105   -349.15714    35.378347    25.558063 
43600000    297.75503   -617.03532   -960.60694    97.333498    25.558822 
43610000     296.7232    34.177497   -501.21945    50.786061    25.559701 
43620000    299.05233   -668.51673    315.87995   -32.006536    25.560196 
43630000    300.65585    268.16335     317.4677   -32.167414    25.560541 
43640000    296.62105     602.9416   -1211.2932    122.73429    25.561911 
43650000    298.08783     1058.138   -614.72661    62.287174    25.564469 
43660000    295.45476    568.90128   -1156.7709    117.20982    25.565859 
43670000    298.90446    416.79546   -465.68547     47.18558    25.567407 
43680000    300.38826     737.1843   -628.82594    63.715789     25.56849 
43690000    295.46162    568.10364   -483.64709    49.005542    25.568434 
43700000    300.01086    440.07338    973.42271   -98.632056    25.567845 
43710000     296.6194    506.88693   -615.71594    62.387417    25.567482 
43720000      296.206   -219.79231    585.71979   -59.348058    25.567067 
43730000    298.59702    350.32697    141.75777   -14.363606    25.568026 
43740000    299.23134    720.88662   -574.72569     58.23408    25.568654 
43750000    298.89339   -154.35109    483.46375   -48.986965    25.568404 
43760000    295.57182    172.35393    543.18895   -55.038621    25.568002 
43770000    294.55249    1037.9655    0.8119476 -0.082270591     25.56749 
43780000    297.27458    1193.4824   -656.91706    66.562121    25.567211 
43790000    296.26489   -186.12514   -543.71527     55.09195    25.567419 
43800000    293.11971    720.23551   -280.32138    28.403563    25.567321 
43810000     303.1512    850.32783   -469.24403    47.546151    25.568657 
43820000    297.29664    252.56197    -768.8631    77.905053    25.569707 
43830000    301.92944   -540.42991    65.360154   -6.6226176    25.569892 
43840000    298.22353    434.06809   -521.58771    52.849875    25.571554 
43850000    298.20631    478.59208    -1180.636    119.62795    25.572092 
43860000    298.94047   -28.028817   -735.84463    74.559457    25.572885 
43870000    297.22139    133.77598   -20.976968    2.1254913    25.573472 
43880000    298.05344    779.81037    154.75646   -15.680699    25.573198 
43890000    294.54592    246.45121   -480.72906    48.709872    25.574429 
43900000    296.23433   -124.88747   -937.39554    94.981603    25.574791 
43910000    297.27087    -300.8856   -5.5111188   0.55841411    25.574277 
43920000    297.95695   -882.81058   -70.138135    7.1067465    25.574015 
43930000    299.28592    925.07579   -280.58437    28.430211    25.573733 
43940000    298.49049    278.91823   -579.31847    58.699444    25.574616 
43950000    297.87474    514.60137   -460.65749     46.67612    25.573235 
43960000    297.23597    104.46751   -465.97533     47.21495    25.571898 
43970000    296.07803   -243.32186    -79.56549    8.0619733    25.571072 
43980000    295.76557   -13.913794    39.898512   -4.0427167    25.569439 
43990000    293.54871   -981.93993    582.19076   -58.990479    25.569062 
44000000    297.67745    216.54428   -293.25582    29.714146    25.569006 
44010000    299.24092    972.62514   -296.65259    30.058323    25.568396 
44020000    297.38165    353.52921   -672.39409    68.130331    25.568425 
44030000    295.08386    610.17837   -366.97111    37.183348    25.567443 
44040000      298.871    1.6918977    201.67049   -20.434263      25.5661 
44050000    295.20011   -48.865867    -1171.833    118.73598    25.564678 
44060000    300.42662   -80.701296   -450.75297    45.672545    25.563522 
44070000    297.98602   -321.82802   -381.94431    38.700507    25.562327 
44080000    301.43125    9.0357382    110.63524   -11.210115    25.560985 
44090000    299.44739     34.60353   -801.98991    81.261627    25.560623 
44100000    297.55013   -66.770094   -490.74979    49.725223    25.559228 
44110000    295.08455   -486.76252   -814.27706    82.506623    25.558847 
44120000    294.01083    694.54074   -696.68951    70.592065    25.559228 
44130000    298.06906   -598.93775    258.46056   -26.188516    25.560117 
44140000    300.70483   -583.19594   -1192.3879     120.8187    25.560709 
44150000    297.77726    512.66703   -512.61379    51.940592    25.561602 
44160000    297.93951   -715.63092   -1048.6876    106.25827     25.56274 
44170000    299.77836   -722.31393   -1077.6478    109.19266    25.562986 
44180000    299.99388    355.19925    212.75986   -21.557892    25.564963 
44190000    294.30425    661.08492   -558.54318    56.594388    25.566317 
44200000    294.73285    213.88282   -509.41324    51.616297    25.566765 
44210000    299.41596  -0.88554104   -786.33192    79.675082    25.567439 
44220000    296.36736    -765.1364   -721.28853     73.08456    25.566299 
44230000    297.58584   -4.2838405    132.79317   -13.455268     25.56625 
44240000    298.84096   -363.81419   -329.30164    33.366488    25.567226 
44250000    298.27128   -126.09605    -699.8551    70.912818    25.568266 
44260000    298.23076      248.672    656.74744   -66.544935    25.569839 
44270000    297.42223    127.27012   -863.78242    87.522754    25.569545 
44280000    298.22216    387.67062   -439.98064    44.581039    25.569081 
44290000    297.31536    -369.2546   -1694.3011    171.67506    25.570546 
44300000    299.92304    -699.0962    317.01234   -32.121275    25.570105 
44310000    299.44319    517.10713    566.63704   -57.414499    25.570469 
44320000    297.43925    32.475941   -311.33846     31.54637    25.570477 
44330000    295.25116   -208.33812   -260.03578    26.348126    25.569674 
44340000    295.93329   -897.64611    2.2926288  -0.23230061    25.568508 
44350000    298.82051    165.96964   -432.65333    43.838598    25.567988 
44360000    298.26971     38.97775   -399.38157    40.467337    25.567997 
44370000    299.72876   -917.32208   -333.81011     33.82331    25.568171 
44380000    300.20529   -545.82533    43.470464   -4.4046447     25.56826 
44390000    298.07556   -748.22231    237.45999   -24.060633    25.568283 
44400000    297.28362    136.42831    167.50598   -16.972543    25.568437 
44410000    302.44751    1016.5763    -111.6219    11.310089    25.567443 
44420000    293.93957   -125.07972   -1050.0644    106.39778    25.568187 
44430000    300.13244    379.02782    -258.9456    26.237663    25.568936 
44440000    299.02374    203.91652   -618.46119     62.66558    25.569902 
44450000    296.92307    149.55763   -739.58215    74.938161    25.569065 
44460000    297.06242    662.22135   -658.03516    66.675413    25.569127 
44470000    297.39991    323.26214   -122.53214    12.415569    25.569182 
44480000    299.03619   -301.57366   -60.338334    6.1137817      25.5679 
44490000    298.09901    186.35094   -425.78901    43.143071    25.568024 
44500000    293.58226    208.54676   -958.59888    97.130031    25.568204 
44510000    301.78262   -726.08451   -264.80598    26.831466    25.568241 
44520000    297.84823     130.9638   -488.06932    49.453624    25.567136 
44530000     298.1692    696.73755    157.56449   -15.965222    25.567231 
44540000    300.11374    487.82814   -581.10828    58.880797     25.56797 
44550000    299.13176   -176.35497   -142.40332    14.429016    25.567372 
44560000    299.86962    188.89505   -742.75133    75.259278    25.565744 
44570000    298.63668    563.68554    536.52964   -54.363866    25.564263 
44580000    300.12421    274.23275     -9.02231   0.91418556    25.561504 
44590000    296.35395     109.2673   -703.95932    71.328678    25.560029 
44600000    297.71074    256.49626    370.44713   -37.535555    25.557904 
44610000    297.88326    209.03826   -425.02571     43.06573    25.558519 
44620000     297.7924    610.81527   -56.703215    5.7454533    25.557451 
44630000    295.88652    52.515713   -193.35173    19.591364     25.55695 
44640000    296.10681    412.92356     453.7941   -45.980687    25.556926 
44650000    295.72395   -339.81173   -539.92158    54.707554    25.555347 
44660000    297.22941    31.281409   -275.11915    27.876448    25.554926 
44670000    295.04818   -474.55259   -29.124333     2.951023     25.55455 
44680000    295.72868   -122.73704   -104.17363    10.555393    25.551902 
44690000    298.39744    647.90664   -249.47362    25.277915    25.551546 
44700000    294.04256    454.02913   -456.58106    46.263076     25.55004 
44710000     295.7064   -705.50643   -104.02399    10.540231     25.54936 
44720000    296.38859   -73.837346   -224.66465    22.764145    25.548153 
44730000    295.29528   -548.88904   -470.70516      47.6942    25.547341 
44740000     299.2933     136.1502    304.54848   -30.858374    25.546822 
44750000    295.22407   -585.46694   -1279.4012    129.63533    25.545767 
44760000    299.11264    1050.5692   -214.56697    21.740998     25.54382 
44770000    300.01119    111.03291   -232.73075    23.581443    25.544482 
44780000    296.25561    426.20309    -577.9149    58.557227    25.545517 
44790000     298.1278   -376.51521   -127.77975    12.947284    25.543923 
44800000    299.81315    391.29209   -106.29123    10.769959    25.543022 
44810000    299.03302    413.71704  0.044670806 -0.0045262695    25.542583 
44820000      298.556    -414.4072   -522.76158    52.968818    25.540328 
44830000    299.50208   -1472.6554    -1038.197    105.19531    25.539858 
44840000    294.85944   -230.91651    334.20979   -33.863807    25.538756 
44850000    296.24865   -508.23196    204.67276   -20.738468    25.535441 
44860000    299.25088    693.25126   -1092.4289    110.69035    25.534344 
44870000    300.34618   -427.77685   -742.62467    75.246444    25.535316 
44880000    299.30952   -231.25556   -913.23078    92.533109    25.536662 
44890000    300.00536     1088.674    8.5246931  -0.86376452    25.537248 
44900000    300.26955   -911.59427   -423.02762    42.863274    25.537541 
44910000    301.12501   -491.89989   -200.33919    20.299368    25.538166 
44920000     295.2181   -721.47996   -459.70568    46.579678     25.53741 
44930000    296.96657   -641.24994   -531.32336    53.836339     25.53658 
44940000    299.94867   -111.64294     383.2879   -38.836647    25.535733 
44950000     298.4058    547.75617    953.06504   -96.569315    25.535458 
44960000    300.36577    791.18212    -246.7331    25.000232    25.535711 
44970000    297.36262     336.9643    74.182496   -7.5165415    25.537066 
44980000     298.7222    279.88964    50.216882   -5.0882255    25.537821 
44990000     297.5597   -154.41719   -104.13373    10.551351    25.537916 
45000000    299.24601   -503.31117   -453.95585    45.997077    25.538217 
45010000    303.43809    21.741403     199.2269   -20.186666    25.539028 
45020000    292.10484    444.81906   -541.07714    54.824641    25.539666 
45030000    298.97991    515.52327    -1079.832    109.41397    25.541123 
45040000    298.19825    254.11316   -13.342612    1.3519402    25.541963 
45050000    299.06812    369.70953   -637.26734    64.571113    25.544118 
45060000    296.86315    -169.2845   -394.68714    39.991675     25.54596 
45070000    300.61697   -73.229686    -374.6073    37.957084     25.54619 
45080000     293.7451    755.47429   -39.947298      4.04766     25.54726 
45090000    298.73456    183.54553   -1222.9036    123.91071    25.548544 
45100000    297.23844    152.11278   -407.32824    41.272534    25.549549 
45110000     299.6874    75.151696   -46.201061    4.6813225    25.550469 
45120000    297.17797    531.53932    253.01107   -25.636347    25.552804 
45130000    299.20086    395.71272   -548.58773    55.585652    25.553034 
45140000    296.07451   -601.37061   -357.73077     36.24707    25.552859 
45150000    297.08953    897.42192   -1694.3656     171.6816     25.55469 
45160000    299.44817    508.44791   -80.904954    8.1976945    25.557083 
45170000    293.83953   -39.349913   -238.33784    24.149582    25.558024 
45180000     299.2353     247.3783   -1030.7101    104.43671    25.559559 
45190000    294.39289    270.96028   -959.18207    97.189123    25.561141 
45200000    296.05951    480.43649   -62.645041    6.3475087    25.561475 
45210000    296.51115   -6.8964839   -400.96897    40.628181    25.561393 
45220000    299.31388   -223.83579    606.08897   -61.411965    25.562414 
45230000    299.92308    497.63597    139.86533   -14.171854    25.562654 
45240000    297.80789    68.133718   -645.05342    65.360038    25.563535 
45250000    296.18617    714.01522    438.41442   -44.422341    25.562879 
45260000    299.59841   -245.46467   -552.19075    55.950728     25.56123 
45270000    296.28192    23.002579    4.9980886  -0.50643133    25.560532 
45280000    295.98181   -878.40227    161.87746   -16.402233    25.560586 
45290000    301.96258    84.357868   -463.13724    46.927381     25.55972 
45300000    298.87033    532.82522   -828.12824    83.910094    25.558444 
45310000    300.36717    607.78464    -113.0875    11.458591    25.557294 
45320000    299.06474    164.27499   -1256.5151     127.3164    25.556294 
45330000    298.41871   -312.09635    33.048724    -3.348662    25.555033 
45340000    297.87518    681.12871    49.156372   -4.9807694    25.553675 
45350000    296.61918    297.60167   -252.63118    25.597855    25.553042 
45360000    296.84662    358.91011   -849.69872    86.095723    25.552539 
45370000    300.31937    883.96699    571.49477   -57.906708     25.55197 
45380000    300.32488    -1382.811   -287.98624    29.180205    25.551237 
45390000    297.90795    62.600504   -170.82727    17.309073    25.551358 
45400000    299.74099   -26.776488   -470.77982    47.701766    25.550942 
45410000    297.83549    1053.4145    468.10984    -47.43123    25.549931 
45420000    300.68792   -190.52732    355.30549   -36.001329    25.548863 
45430000    299.75167    253.44645   -480.78927    48.715973    25.549888 
45440000    301.63497   -1078.0851    142.05304   -14.393525    25.549136 
45450000    299.66107    577.20704   -356.48337    36.120678    25.548904 
45460000    293.32514   -552.08582   -253.25095    25.660653    25.547506 
45470000     301.7347   -1047.8761   -193.46395    19.602734    25.546197 
45480000    296.54211    723.82188   -89.844424    9.1034862    25.545134 
45490000    300.93932   -1291.2531    187.15506   -18.963487    25.545075 
45500000    296.18749    156.35072    242.66621   -24.588153    25.544914 
45510000    296.25111    191.25084   -161.04264    16.317646    25.544686 
45520000    297.56273    123.61525   -252.91188    25.626296    25.544939 
45530000    299.37024    87.131761    451.44566   -45.742732    25.544104 
45540000    298.02218   -527.44693    358.43723   -36.318652    25.543047 
45550000    294.43964    219.26079   -589.58176    59.739372    25.543743 
45560000    292.21345   -518.22187    536.66443   -54.377523    25.543728 
45570000    298.67853    503.02319   -899.94934    91.187367    25.543266 
45580000    297.45586   -782.98632   -346.33844    35.092742    25.544231 
45590000    296.10133    120.23168   -591.63592     59.94751    25.544274 
45600000    301.41994    -49.81459    1512.4654   -153.25056    25.545014 
45610000    301.51218    705.92449   -89.925735    9.1117251    25.544837 
45620000    297.13433   -340.64555   -762.93918    77.304812     25.54541 
45630000    296.87502   -148.45335   -359.73536    36.450185    25.545776 
45640000    301.65766   -556.37747    -455.2462    46.127822    25.548281 
45650000    299.34472   -1266.4504   -400.36482    40.566966    25.549245 
45660000    299.40455    674.00219    -657.6316    66.634522    25.549911 
45670000    297.33077    93.597178   -437.96818    44.377126    25.551196 
45680000    300.21733    1229.2472   -478.65243    48.499457    25.553016 
45690000    296.94069   -8.1593097   -191.46626    19.400319    25.554055 
45700000    295.75273    1167.7784   -520.34865    52.724327    25.554537 
45710000    298.16987   -465.57594   -259.59955    26.303924    25.554758 
45720000    301.22478    54.055256   -128.97477    13.068369    25.553308 
45730000    300.44597    733.56596   -501.11067    50.775038    25.553377 
45740000    297.80514    1254.2663    322.41113   -32.668308    25.553125 
45750000    297.17969    216.00982    452.34816   -45.834177    25.552917 
45760000    296.11118    203.81784   -429.47334    43.516387    25.552722 
45770000    297.71739    311.21583   -1335.1096    135.27998     25.55253 
45780000    298.34622   -51.868738    387.43304   -39.256652    25.550883 
45790000     297.1874    1110.8264   -1095.6158    111.01327    25.548076 
45800000    294.79858    994.51619   -716.05245    72.554015    25.546652 
45810000    301.45546   -408.22213   -279.46897    28.317194      25.5474 
45820000    297.51792    550.99418    -240.3508    24.353545    25.546667 
45830000    293.27263    84.926401    223.97329   -22.694094    25.545609 
45840000    293.10061    70.716939    -157.1918    15.927459    25.544644 
45850000    301.79026    795.89625    372.73949   -37.767829    25.544748 
45860000    298.47546   -213.65025   -534.13498    54.121227    25.544322 
45870000    296.36831    476.36013    18.668529   -1.8915887    25.543589 
45880000     296.7296    -77.53372   -511.09008    51.786202    25.544468 
45890000    297.67978   -69.210116   -62.318174     6.314389     25.54663 
45900000    299.25782   -21.788743   -257.84336    26.125978    25.548785 
45910000    298.01783    348.89596    -581.3109    58.901327    25.548357 
45920000    297.51853   -544.78234   -529.42239    53.643724    25.548263 
45930000    302.90464   -520.56074     97.17059   -9.8458101    25.548527 
45940000    297.03782   -119.63746   -474.58484    48.087309    25.549633 
45950000    299.70351    644.42128    -189.5342    19.204553    25.549938 
45960000     295.3744    696.40817   -881.63715    89.331884    25.551747 
45970000    298.76825     997.5219    157.08221   -15.916355    25.553116 
45980000    297.43782    581.51437   -230.30157    23.335307    25.552591 
45990000     296.3633   -220.75444   -587.69108    59.547799    25.553351 
46000000    300.18414   -23.935496    -476.3486    48.266022    25.552628 
46010000    298.89762    543.56076    161.10038   -16.323496    25.552869 
46020000    295.05422   -304.06166   -250.42243    25.374052    25.552683 
46030000     297.7498    262.96049    263.26798   -26.675628    25.552127 
46040000    299.68856   -490.66794    -385.7041    39.081468    25.551214 
46050000    300.63534   -226.40375    56.823719   -5.7576633    25.550607 
46060000    298.62118    215.07211   -83.972403    8.5085037    25.550223 
46070000    296.41432   -704.08263   -895.79907     90.76684    25.552706 
46080000     298.3413   -311.16272    371.10616   -37.602331    25.553389 
46090000    298.12786    245.16956   -329.43243    33.379741    25.552382 
46100000    298.03219    1332.1984   -843.83941    85.502029    25.553361 
46110000     299.6873   -503.32909   -711.37398    72.079968    25.553984 
46120000    298.04318    796.98606     71.05053    -7.199195    25.554518 
46130000    301.73038   -4.7524515     198.4309   -20.106011    25.555425 
46140000    297.94136    -224.2701   -462.77757    46.890937    25.556486 
46150000     294.8214    467.73203    835.82627   -84.690096    25.555716 
46160000    294.45598    -120.0587    73.163767   -7.4133187    25.554609 
46170000    300.96099    186.68367    186.36777   -18.883715    25.553392 
46180000     295.0226    59.578382   -1044.2389    105.80751    25.553102 
46190000    298.34579    1164.7196   -130.15274    13.187727    25.552386 
46200000    297.93808   -679.22769   -1108.3084    112.29935    25.552436 
46210000    301.06343   -311.94626    188.48532   -19.098275    25.551682 
46220000    295.87883    810.03764   -793.97299    80.449313    25.551795 
46230000    299.20053   -47.250198    9.2834532   -0.9406459    25.550244 
46240000    300.00375    348.03493   -1027.1888     104.0799    25.550827 
46250000    300.55457   -382.68097   -77.221739    7.8244927    25.551035 
46260000     299.1885    282.99375   -429.69918    43.539269    25.551926 
46270000    296.41539    388.63858    6.6666283  -0.67549611    25.551387 
46280000    299.89775    220.71774    192.48219   -19.503258    25.552704 
46290000    299.89033    434.15378    46.194533    -4.680661    25.552517 
46300000    300.80226    230.31755   -574.77601    58.239179    25.552282 
46310000    302.25117    222.57344    263.33593   -26.682513    25.552358 
46320000    299.37271    398.77624    452.17585   -45.816718    25.551596 
46330000    297.07839   -234.43304   -234.49048    23.759748      25.5487 
46340000    296.52016   -4.2873103    142.02573   -14.390757    25.548293 
46350000    296.40787   -515.10443   -173.77687    17.607941    25.549192 
46360000    303.15801    1128.8377    8.0465911  -0.81532084    25.550063 
46370000    298.93859    327.03285   -881.50661    89.318657     25.55087 
46380000    295.32053   -140.48775    63.864453   -6.4710657    25.550156 
46390000    295.06402    830.45208   -333.49384    33.791263     25.55029 
46400000    296.93466   -1187.7355    395.42926   -40.066869    25.551422 
46410000    301.36919     623.6569    146.13356   -14.806982    25.551543 
46420000    299.35922   -398.73965   -857.57311    86.893596     25.55111 
46430000    296.93422   -878.74963   -214.23126    21.706982     25.55177 
46440000    294.68479    949.48205   -772.48807    78.272353    25.552469 
46450000    299.19797    897.55448    67.336111   -6.8228314    25.552816 
46460000    299.78375     783.4208   -120.46483    12.206099    25.553179 
46470000    298.04322   -391.56219    -1297.049    131.42349    25.552721 
46480000    301.98587    445.63051   -573.99123    58.159662     25.55342 
46490000    296.04837   -58.945067   -312.85361    31.699892     25.55337 
46500000    300.26199   -493.37519    -832.5474    84.357865    25.554099 
46510000    299.59122    1738.7079    37.086038   -3.7577428    25.554895 
46520000    296.68243   -888.29054    82.339627   -8.3430628    25.554816 
46530000    300.71198   -103.72054    304.30971   -30.834182    25.555366 
46540000    298.99866   -777.72531   -797.95867    80.853162    25.555083 
46550000    298.43631     830.1168   -69.892626    7.0818703    25.555237 
46560000    295.82702    978.22295   -360.11487    36.488639    25.555712 
46570000    299.16703    567.24265   -188.30158    19.079657    25.556832 
46580000     301.6776    919.20785   -429.85843    43.555406      25.5593 
46590000    302.16352    527.94501   -178.97429     18.13457    25.561596 
46600000     296.8309    434.08746   -1033.4202     104.7113    25.562869 
46610000    295.90873    73.692001   -12.720308    1.2888852    25.564873 
46620000    297.56336    184.88746   -1048.5575    106.24509    25.567659 
46630000    295.84033    322.18477   -823.14926    83.405599    25.570024 
46640000     297.7151    699.62945   -594.41079    60.228674    25.571809 
46650000    301.51147   -584.80838   -596.25982    60.416027    25.572204 
46660000    296.10158    1122.1831   -123.43859    12.507415    25.572681 
46670000    296.53875    392.98203   -940.90498    95.337197     25.57427 
46680000    295.81783    12.549855    -178.7496    18.111803    25.575322 
46690000    301.09862    467.09747   -564.58808    57.206888    25.575616 
46700000    298.48175    -337.9852    -150.5568    15.255167     25.57665 
46710000    294.12829   -1240.3559    297.94168   -30.188941    25.576241 
46720000    298.56001    154.64955    159.61067   -16.172551    25.575827 
46730000    299.84406   -63.479241   -90.429513    9.1627704    25.575877 
46740000    302.18388   -164.92113    508.17977   -51.491316    25.575812 
46750000    293.39161   -153.82917   -522.00668    52.892327    25.576238 
46760000    297.73011   -113.47215    588.87144   -59.667398     25.57501 
46770000    297.70222   -202.42357   -887.33484    89.909203    25.575154 
46780000    297.09941   -323.82921    -317.5367    32.174407    25.573529 
46790000    298.69031    245.15978   -582.71245    59.043339    25.572748 
46800000    299.69032    670.95029     993.3006   -100.64618    25.570345 
46810000    300.64471   -6.0275667   -84.589484    8.5710294    25.566796 
46820000    293.90891    239.93477   -323.19755    32.747992    25.563868 
46830000    302.21264    661.60759   -297.49292     30.14347    25.560483 
46840000    298.33052    1354.8039   -579.43682    58.711435    25.560027 
46850000    298.43619   -89.196043   -623.43107    63.169153     25.55982 
46860000    298.17078    90.521988    14.163627   -1.4351295    25.559167 
46870000    297.46584   -3.0441801   -596.97307    60.488297    25.559558 
46880000    296.81974    -474.5412    224.10486   -22.707425    25.558694 
46890000    293.91617   -207.38043    155.80311    -15.78675    25.559023 
46900000     296.7255    882.15935   -213.18939    21.601415    25.559033 
46910000    300.89081    542.88082    382.57457   -38.764369    25.559443 
46920000     297.1244   -85.724019   -360.06274    36.483357    25.560364 
46930000    296.45323   -85.173068   -288.78714    29.261357    25.560062 
46940000    297.99291    799.25186   -406.75617    41.214569    25.561313 
46950000    299.48337   -289.65059   -331.04592    33.543228    25.562813 
46960000    292.81838    713.07321   -651.92818    66.056622    25.564598 
46970000     296.3247   -1343.9089   -765.10195    77.523955    25.566651 
46980000    298.22041    -71.34229    530.48513   -53.751405    25.566991 
46990000    300.12831    263.47721   -498.06298    50.466231    25.568676 
47000000    302.33889    579.05522   -958.00514     97.06987    25.569599 
47010000    296.52366    315.42037   -386.71908     39.18431    25.568954 
47020000    295.69934   -416.88564   -324.87803    32.918266     25.56911 
47030000    298.38164    203.40854   -586.58203    59.435424    25.569129 
47040000    301.61084   -358.07459   -794.13957    80.466192    25.568966 
47050000    299.74829   -426.21204    202.37548   -20.505696    25.570166 
47060000    298.77204     179.6587     246.6554   -24.992358    25.569694 
47070000    299.03878    384.73238   -445.60822    45.151253    25.568386 
47080000    298.61944     1149.539   -476.56196     48.28764    25.567927 
47090000    296.92592   -874.76487    362.54749   -36.735125    25.568393 
47100000    297.65553   -228.87937   -155.48372    15.754388    25.569393 
47110000    300.65518   -236.16357   -1446.1897    146.53517    25.571169 
47120000    303.39699    219.49147   -215.09915    21.794922    25.572309 
47130000    301.07478   -170.75426   -115.26594    11.679321    25.572948 
47140000    295.70758   -662.50521   -976.31214    98.924827    25.574595 
47150000    295.17576    136.14672    164.60218   -16.678316    25.576089 
47160000    294.75983    837.91013   -451.57193    45.755526    25.576564 
47170000    297.44533     885.3918   -51.906417    5.2594177    25.577894 
47180000     297.8312    496.68015    62.020685   -6.2842459    25.578912 
47190000    297.78373   -34.967393    -1202.924    121.88628    25.579824 
47200000    300.23222   -249.94953   -804.15931    81.481442    25.578603 
47210000    297.24686    699.24456   -131.37271     13.31134    25.576968 
47220000    298.44678    55.695521   -332.30398    33.670701     25.57744 
47230000     300.7415    958.59837   -374.32708    37.928692     25.57644 
47240000    302.85374    679.19063    250.45623   -25.377477    25.575905 
47250000    294.95715    490.70551    -281.8955    28.563062    25.574699 
47260000    296.46846    313.85799   -77.156688    7.8179014    25.573921 
47270000    296.28223    -489.7817     20.93562   -2.1213017    25.572812 
47280000    295.89019   -407.43172    161.12883   -16.326379    25.571888 
47290000    296.24421   -504.71139    309.29635   -31.339453    25.570885 
47300000    298.08254    -106.6176    136.52463   -13.833358    25.570616 
47310000    301.76306    112.61426    299.06187   -30.302444    25.568942 
47320000    297.85333    125.51688   -170.64346    17.290449    25.566343 
47330000    295.37684    731.45197    -377.4926    38.249438    25.564824 
47340000    298.61034    245.06482    233.77578   -23.687331    25.564077 
47350000     296.8364    70.039678   -99.733657    10.105513     25.56409 
47360000    298.88199   -261.15642     31.35963   -3.1775145    25.562631 
47370000    300.15074   -953.75689   -38.058621    3.8562897    25.562808 
47380000    302.49363    369.37092   -584.50525    59.224994    25.561889 
47390000    292.92494    641.04171    532.53114   -53.958717    25.561502 
47400000    294.29114   -206.71466   -757.78364    76.782427    25.561102 
47410000     301.3024     501.5171   -416.04941    42.156206    25.559408 
47420000    296.58951    981.85069   -292.00885    29.587797    25.558731 
47430000    300.41781   -406.80872   -1232.5378    124.88689    25.556473 
47440000    297.23593    204.67582    84.064523   -8.5178378    25.554623 
47450000    300.24627    1176.3746   -262.86332    26.634626    25.553247 
47460000    295.43821   -279.17911   -40.059772    4.0590564     25.55189 
47470000    296.40848   -406.27654    57.855857   -5.8622447    25.551473 
47480000    294.76434   -737.19587   -68.296897    6.9201831    25.550924 
47490000    300.23157    705.47166    -158.9473    16.105335    25.551403 
47500000    292.59742    820.03657    167.85209   -17.007613    25.551418 
47510000    292.29048    283.16145    542.69471   -54.988541    25.550655 
47520000    298.07936    1616.5624   -150.59971    15.259516    25.549733 
47530000    295.49593   -168.67413   -1053.5311    106.74904    25.549338 
47540000     299.2447   -273.84393   -212.66848    21.548634     25.54909 
47550000    297.60715    765.99137   -196.06901    19.866692    25.548305 
47560000    296.00533   -174.12123    985.68697   -99.874732    25.547736 
47570000    294.91091    214.19261   -139.91813    14.177205    25.547003 
47580000    301.53145     505.2785    21.200823   -2.1481734    25.547518 
47590000    297.94578   -2.9913838    441.09312   -44.693761    25.548626 
47600000    298.72206    1220.4598    383.90173   -38.898843    25.549526 
47610000    300.22749   -160.46541   -359.72937    36.449578    25.549357 
47620000     298.1679   -147.88481   -91.980634    9.3199378    25.549313 
47630000    299.37803    1755.1594    239.94004   -24.311924    25.549587 
47640000     295.4484    680.24104   -463.21948    46.935714    25.550318 
47650000    297.01818    62.313506   -697.15497    70.639227    25.552365 
47660000    294.81265     436.3287    -713.6606    72.311661    25.552198 
47670000    297.27038    128.26695    220.23065   -22.314871    25.553595 
47680000    296.10944    843.74841   -1218.0058    123.41444    25.555538 
47690000    300.80368    1448.5699   -606.57276    61.460984    25.557683 
47700000    293.43726     721.1432   -153.60458    15.563984    25.560008 
47710000    297.66839    296.82553   -844.40959    85.559802    25.562229 
47720000    298.06098    403.99597   -718.33416    72.785208    25.563894 
47730000     291.6546   -19.003433    -651.4209    66.005223    25.565998 
47740000    295.06089    296.95871   -689.05991    69.818996    25.568625 
47750000    298.87599   -871.63991    508.28818     -51.5023    25.570143 
47760000    299.22154    202.31762    203.58125    -20.62787    25.570392 
47770000    296.43365   -171.39765   -1438.1519    145.72074    25.570858 
47780000    302.14307     897.2465     502.6945    -50.93552    25.571709 
47790000    296.50644    579.33283    367.80908   -37.268255     25.57079 
47800000    295.98282   -140.85193    631.22569   -63.958943     25.56971 
47810000     298.2415   -650.20825   -618.92064    62.712134    25.569355 
47820000    299.07895   -355.08735   -901.91804    91.386845    25.570302 
47830000    298.67992   -450.88831    15.530494   -1.5736273    25.570874 
47840000    298.52281    266.53797    297.90956   -30.185686    25.570893 
47850000    296.36908   -980.28174    243.87593   -24.710729    25.571365 
47860000    298.47349    351.62568   -777.53553    78.783788    25.571991 
47870000    298.40877   -153.01923   -490.00186    49.649439    25.572843 
47880000    297.80655    187.60927    -794.6503    80.517942    25.573185 
47890000    295.02399   -139.39688    -987.9221    100.10121    25.573057 
47900000     297.7272   -154.72231    661.26351   -67.002525    25.573278 
47910000    295.84818    613.07067   -228.47093    23.149817    25.575286 
47920000    298.98658    1092.3183   -1156.9824    117.23124    25.577702 
47930000    297.93876   -102.46035    335.50258   -33.994799    25.579532 
47940000    301.95912   -371.30479    381.48579   -38.654048    25.581582 
47950000     295.5209   -372.11502    -445.2814    45.118138     25.58301 
47960000    294.56101   -517.49968   -1263.2932    128.00318    25.584617 
47970000    297.52593    232.24083   -712.67638    72.211935    25.586598 
47980000    300.35089   -5.7438299     492.2401   -49.876228    25.587702 
47990000    300.95223    446.26687    133.11534   -13.487912    25.587507 
48000000    296.93385    -42.50469   -483.39152    48.979646    25.588006 
48010000    298.91849    566.96701   -358.02612    36.276997    25.590034 
48020000    297.36949   -264.32688   -787.67792    79.811465    25.592083 
48030000    298.03197    -1331.148   -1452.7459    147.19948    25.593386 
48040000    300.21795    43.131767    104.68523   -10.607231    25.596278 
48050000    296.54535    405.22438    -742.1812     75.20151    25.597969 
48060000    295.23663   -433.50246    198.18504   -20.081099    25.600717 
48070000     298.0438    1252.2953   -858.94192     87.03229    25.601417 
48080000    301.61778   -792.69161     171.0561    -17.33226    25.603473 
48090000     293.7386   -1358.4713   -796.37938    80.693141     25.60486 
48100000    296.86553   -439.52941    441.12324   -44.696812    25.607754 
48110000    296.16315    620.83529    172.51782   -17.480368    25.609941 
48120000    295.47708    124.72925   -642.79992    65.131702    25.613406 
48130000    295.69681    305.70736    -822.0188    83.291054    25.615905 
48140000    297.04728    333.58913   -329.86024    33.423089    25.616685 
48150000    301.18191    167.32799   -312.37172    31.651064     25.61811 
48160000    298.16895   -1058.3149    1065.0232   -107.91347    25.618913 
48170000    299.06515   -150.55326   -723.53757    73.312444    25.620219 
48180000    297.68303   -197.02596   -406.99418    41.238686    25.621818 
48190000    294.84406   -478.92981   -782.03219    79.239411    25.622434 
48200000    299.69646      316.476   -340.46738    34.497857    25.624194 
48210000    298.55936   -744.32005   -246.38017    24.964471     25.62576 
48220000    293.99475   -126.16622      -309.11    31.320571    25.627007 
48230000    295.79291    326.51571   -900.05005    91.197571    25.627466 
48240000    295.87782   -83.401702   -477.48717    48.381387    25.627827 
48250000    295.99767    450.20937   -491.46028    49.797213    25.628153 
48260000    294.95619   -461.41931   -279.23581    28.293569    25.628868 
48270000    298.40067    974.38335    -53.15924      5.38636    25.629034 
48280000    298.66413    115.32167   -481.26562    48.764239    25.629148 
48290000    296.03167    229.84016   -544.17638    55.138671    25.628571 
48300000    296.43649    23.165024   -117.40135    11.895691    25.628603 
48310000    297.67047    536.65075   -807.84309    81.854701    25.628887 
48320000    300.67149    604.96888   -612.15407    62.026511    25.629523 
48330000    298.06128   -62.462886   -565.88736    57.338537    25.629085 
48340000    299.99158    704.59752   -354.09997    35.879179    25.628641 
48350000    296.42387    1423.4799    540.51001   -54.767176    25.628793 
48360000    301.28126    164.62958   -12.342496    1.2506034     25.62921 
48370000    295.50442    263.07176    355.42742   -36.013683    25.629473 
48380000    299.37753    494.71565   -369.84235    37.474276    25.630794 
48390000    298.19055    583.17483   -383.15479    38.823159    25.631592 
48400000    297.05867   -181.18857   -638.77524    64.723901    25.632697 
48410000    299.67008    937.17111   -77.921361    7.8953819    25.632106 
48420000    297.80357    239.03941   -622.27054    63.051562    25.631334 
48430000    297.83071    509.32948   -805.31425    81.598467     25.62972 
48440000     296.2562    1130.1823   -268.66647     27.22263    25.628543 
48450000    301.27003   -143.82275    -862.5539    87.398274     25.62673 
48460000    300.42335    303.30472   -346.05221     35.06374    25.626891 
48470000    294.79655    518.34097   -694.34517    70.354524    25.627062 
48480000    298.41268    612.72391   -296.59272    30.052257    25.627284 
48490000     301.5015    -485.4346   -1295.8013    131.29707     25.62794 
48500000    300.82172     349.1755    132.33526    -13.40887    25.627851 
48510000    296.96368    754.18196   -591.81203    59.965354    25.627345 
48520000    297.31959   -414.22725   -603.26524     61.12585    25.628522 
48530000    300.32979    618.90304   -251.92926    25.526732    25.629231 
48540000    299.09475    712.51709   -264.69651    26.820374    25.630113 
48550000    294.67473   -270.50317   -96.870911     9.815445    25.630791 
48560000    298.42678   -742.94557   -293.07655    29.695982    25.632057 
48570000    297.90452    239.31575   -539.34512    54.649145    25.632301 
48580000    300.03242    526.58534   -550.41845    55.771149    25.633248 
48590000    294.46913   -529.96155   -105.08631     10.64787    25.635196 
48600000    298.13413    426.20261    1226.0515   -124.22967    25.636646 
48610000    295.40229    155.66698    -333.5138    33.793286    25.638588 
48620000    293.42194   -90.768763   -678.04608    68.703019    25.640957 
48630000    294.83463    354.93234     -1542.02    156.24518     25.64368 
48640000    298.58589    262.10077    142.16356   -14.404722    25.645916 
48650000    295.29779     461.3066   -4.0784889   0.41325289    25.648055 
48660000    298.10279   -844.32983   -637.31842    64.576289    25.650201 
48670000     293.6089    1219.7512    -420.1992    42.576684    25.651386 
48680000    293.30145   -225.32453   -297.41549    30.135624    25.653766 
48690000    296.60686    -56.55882   -944.64158    95.715808    25.654509 
48700000    299.86751    93.026778   -657.74586    66.646099    25.656018 
48710000    298.63174   -328.93943   -160.14125    16.226313    25.657168 
48720000     299.2722   -1451.4617    22.001918   -2.2293444     25.65815 
48730000    298.85411    969.98591   -266.94015     27.04771    25.659323 
48740000     300.9329   -300.89766   -246.09471    24.935547    25.660216 
48750000    297.56327    714.70541   -818.25227    82.909411    25.661915 
48760000    294.94066     431.3668    -87.15463    8.8309429    25.663407 
48770000    294.13757   -965.77179   -650.76339      65.9386    25.665393 
48780000    298.22794    1399.1653   -1209.0383     122.5058    25.667949 
48790000    300.25896   -497.48976   -854.38518    86.570578    25.672079 
48800000    295.84485   -1231.3101    708.62974   -71.801908    25.674312 
48810000    299.39059    16.671037   -90.373694    9.1571146    25.674465 
48820000    298.85486    741.54268    -412.4228     41.78874    25.673938 
48830000    298.20363   -84.319118   -513.56796    52.037274    25.672968 
48840000    302.57358   -275.28505   -552.77938    56.010371    25.672437 
48850000    298.19643     771.1392    9.4233955  -0.95482554    25.673293 
48860000    299.41443   -491.56299   -407.39523    41.279322    25.674597 
48870000    299.92239   -987.73323   -218.65105    22.154817    25.674814 
48880000    297.85519    85.730337   -517.91294    52.477529    25.676262 
48890000    299.20501    573.74188   -393.07701    39.828528    25.677532 
48900000    297.12126    170.13029   -64.326814    6.5179145    25.679075 
48910000    297.12578   -235.99972   -412.68391    41.815198    25.681727 
48920000    298.56297   -505.11261    812.82232   -82.359222    25.683492 
48930000    297.85053    414.10454   -1219.1382    123.52917    25.684686 
48940000    298.31171   -388.31406   -476.96601    48.328581    25.686298 
48950000    298.03835    1379.7596   -1215.2235    123.13252    25.686316 
48960000    291.11343    455.63503   -295.23971    29.915163    25.687201 
48970000    297.77173   -967.13156   -902.68032    91.464083     25.68839 
48980000    295.05595    340.92571    489.14463    -49.56258    25.690414 
48990000    297.28204   -133.58931   -67.453086     6.834684    25.694002 
49000000    300.85316   -435.80204   -593.89391      60.1763    25.695506 
49010000     294.7885    803.55561   -277.18732    28.086005    25.698606 
49020000    295.81226    270.98899    75.484772   -7.6484945    25.700868 
49030000    299.18944   -717.61006   -969.23781    98.208021    25.702792 
49040000    295.32731     129.6565    109.75901   -11.121332    25.705401 
49050000    296.90155   -624.66195   -348.09825    35.271055    25.707541 
49060000    299.36126    251.40564    68.506732   -6.9414446      25.7094 
49070000    301.35613    386.23619   -621.96156    63.020255    25.709905 
49080000    298.48143   -449.27647    69.731704   -7.0655649    25.710395 
49090000    298.45689    143.01523     -344.173    34.873329    25.711273 
49100000    302.39873    92.178905    325.48032   -32.979293    25.711845 
49110000    297.53062    300.45549   -73.860202     7.483885    25.711644 
49120000    301.01494    532.55051   -496.25042    50.282574    25.712045 
49130000    296.32093   -712.28284   -616.24069    62.440588    25.712648 
49140000    298.86251   -276.50795    -661.8459    67.061536    25.714383 
49150000     296.8412   -152.86791   -938.08015    95.050972    25.715304 
49160000    294.05284    44.402567    471.08825   -47.733017    25.715799 
49170000    300.25932    56.427358   -561.01732     56.84508    25.718247 
49180000    300.02492    553.71003   -286.53989    29.033655    25.719765 
49190000    296.64232   -491.79668   -133.84528    13.561873    25.721289 
49200000    298.13394   -178.27936   -82.899784    8.3998206    25.721777 
49210000    297.79535    34.115123   -396.06923    40.131714    25.722196 
49220000    296.24915   -127.83342   -87.162284    8.8317185    25.722059 
49230000    298.19926   -203.05603    341.79259   -34.632134    25.722837 
49240000    298.76545   -176.80667    165.13264   -16.732065    25.723433 
49250000    296.24588   -358.99925    250.31171   -25.362834    25.725382 
49260000    299.00699   -806.74931   -827.72085    83.868815    25.727142 
49270000    297.23978    190.85512   -193.57857    19.614349    25.728581 
49280000    295.45634    1334.3042    121.97292   -12.358906    25.728372 
49290000    298.63508   -57.607526   -757.27277    76.730664    25.728316 
49300000    295.54759    855.89631   -639.81657    64.829414    25.729722 
49310000    299.35158   -857.56992     381.0358   -38.608452    25.731347 
49320000    297.02599    179.80013   -499.73199    50.635344    25.732919 
49330000    297.27033    240.03946   -764.06777    77.419167     25.73357 
49340000    294.40212   -89.581504    642.42937   -65.094156    25.733357 
49350000    300.45642    131.75524   -558.27171    56.566881    25.733717 
49360000    300.65061     37.96622    753.53619   -76.352054    25.733681 
49370000    302.75092     1016.294   -1015.9143    102.93751    25.733535 
49380000     298.3368    674.90106   -160.87574    16.300734    25.735338 
49390000    293.48211    34.489716   -978.39436    99.135809    25.736382 
49400000     297.4167    54.990942     374.5727   -37.953579    25.736217 
49410000    297.31361   -345.83118   -1597.9964    161.91699    25.737022 
49420000    295.26503    685.31305    21.001818   -2.1280092     25.73789 
49430000    301.21031    92.412613   -594.37777    60.225328    25.739521 
49440000    297.10905   -514.51605   -158.31535    16.041303    25.739958 
49450000    299.80878    110.02516     101.7906   -10.313933    25.740943 
49460000    296.62414   -246.66432   -474.60983    48.089841    25.743032 
49470000    298.11423   -242.32263    28.063814    -2.843566    25.743646 
49480000     301.9245    96.100817    -462.4309    46.855811     25.74475 
49490000     297.1054    189.49907   -702.09339    71.139612    25.745509 
49500000    299.21505   -462.62898   -30.660439     3.106669    25.746274 
49510000    294.57566    548.24079    174.87343    -17.71905    25.748706 
49520000    297.80105    190.47619   -922.67772     93.49032    25.748264 
49530000    295.59675    409.12869   -225.05993    22.804198    25.749285 
49540000    297.87008    9.0537065   -304.06146    30.809027    25.750936 
49550000    295.98021   -172.85041     346.7308   -35.132498    25.751491 
49560000    300.30672    162.59848    3.9121191  -0.39639546    25.754365 
49570000    300.91716    84.008152   -44.938586    4.5534022    25.755336 
49580000    299.24625   -79.262427    -54.34414      5.50642    25.756469 
49590000    298.75853    24.346622   -399.22055    40.451023    25.757673 
49600000    299.40874    239.28732   -33.477798    3.3921378    25.758231 
49610000    292.19173   -191.29582       -845.4    85.660155    25.759934 
49620000    302.45593   -788.31255   -7.3137501   0.74106572    25.759777 
49630000    295.49048     241.2666   -460.25416    46.635253    25.761631 
49640000     301.3251    375.75079   -446.10996    45.202092    25.763997 
49650000    296.95548   -220.18045   -874.91785    88.651051    25.764418 
49660000    300.73492   -951.22532    336.30635   -34.076241    25.764201 
49670000     294.3942    547.31708   -277.25604    28.092968    25.763874 
49680000    299.13177    126.16844    -855.8251    86.716478    25.764352 
49690000    301.47631   -47.742788   -1077.0233    109.12939    25.763422 
49700000    295.03015     935.8355    -1029.469    104.31095     25.76389 
49710000    298.96959    716.74654    453.53368     -45.9543     25.76365 
49720000    301.96471    151.35514    389.23027   -39.438758    25.764139 
49730000    301.01742    703.67364   -990.67929    100.38058    25.765316 
49740000    295.70454   -311.19838   -926.55022    93.882701    25.766567 
49750000    298.96535   -707.05685    345.37724   -34.995349    25.767031 
49760000    300.19552    665.74754    259.56319    -26.30024    25.767451 
49770000    296.06723   -207.25531    -922.9763    93.520574    25.767132 
49780000    297.22876    560.72516   -332.22593    33.662793     25.76855 
49790000    298.60045    210.47858   -767.37734    77.754509    25.769657 
49800000    300.42151     221.4858   -113.95077    11.546062    25.770262 
49810000    298.34943   -245.86753   -785.94224    79.635597    25.770254 
49820000    301.04435    515.75937     182.6378   -18.505775    25.771038 
49830000     298.3358   -15.038602   -517.52981    52.438708    25.772333 
49840000    297.67737   -376.20038   -491.81206    49.832857    25.771262 
49850000    301.86452    391.28273   -121.06978    12.267395    25.769787 
49860000    294.12421    387.08381   -62.529471    6.3357987    25.770181 
49870000    293.74488   -110.78942   -1333.3193    135.09857    25.769261 
49880000    295.32086   -145.81905    -25.06983    2.5402005    25.768326 
49890000    295.85467    1093.6172   -300.92397    30.491122    25.766028 
49900000    293.85302   -433.67128   -878.41069    89.004963    25.764983 
49910000    296.37724   -163.97942    177.81564   -18.017169    25.763232 
49920000    295.50661    353.46313    43.556161    -4.413328     25.76248 
49930000    297.80594   -307.60584    637.95368   -64.640656    25.762224 
49940000     297.5981    176.20205   -194.00894    19.657955    25.762781 
49950000    303.25834    34.958546   -258.52707    26.195255    25.762653 
49960000    295.89893    59.691108   -700.88017    71.016684    25.762776 
49970000    297.67525    -254.7987   -427.07537    43.273412    25.763671 
49980000    300.53388   -253.93578   -341.84933    34.637884    25.764158 
49990000    294.41236   -474.02426   -537.69185    54.481627    25.763901 
50000000    298.53437    923.94084    92.427848   -9.3652517    25.762854 
Loop time of 294028 on 36 procs for 50000000 steps with 11125 atoms

Performance: 7.346 ns/day, 3.267 hours/ns, 170.052 timesteps/s
96.3% CPU use with 36 MPI tasks x 1 OpenMP threads

MPI task timing breakdown:
Section |  min time  |  avg time  |  max time  |%varavg| %total
---------------------------------------------------------------
Pair    | 1.9817e+05 | 2.0231e+05 | 2.0852e+05 | 597.2 | 68.80
Bond    | 9680.1     | 9769.6     | 10147      | 123.4 |  3.32
Kspace  | 37230      | 43280      | 47524      |1277.9 | 14.72
Neigh   | 8966.1     | 8976.1     | 8983.7     |   4.4 |  3.05
Comm    | 21129      | 21349      | 21598      |  90.0 |  7.26
Output  | 2.4877     | 249.05     | 256.11     | 264.1 |  0.08
Modify  | 6886.3     | 7218.7     | 7672.3     | 274.4 |  2.46
Other   |            | 880.5      |            |       |  0.30

Nlocal:    309.028 ave 339 max 286 min
Histogram: 2 5 5 6 2 5 8 0 2 1
Nghost:    7438.67 ave 7520 max 7369 min
Histogram: 2 4 6 4 3 7 2 3 4 1
Neighs:    177467 ave 193993 max 159910 min
Histogram: 3 1 3 7 5 4 2 6 2 3

Total # of neighbors = 6388804
Ave neighs/atom = 574.275
Ave special neighs/atom = 10.7416
Neighbor list builds = 862946
Dangerous builds = 0

write_restart restart.pec6
PPPM initialization ...
  using 12-bit tables for long-range coulomb (src/kspace.cpp:319)
  G vector (1/distance) = 0.196002
  grid = 15 15 15
  stencil order = 5
  estimated absolute RMS force accuracy = 0.0198665
  estimated relative force accuracy = 5.98274e-05
  using double precision FFTs
  3d grid and FFT values/proc = 1000 135
No /omp style for force computation currently active
Total wall time: 81:40:28
